30
1SJ0-anthra-Active10th charge=0 mult=1 PIC50=5.613732958
C       4.68140000     0.69700000    -0.06950000
C       3.99150000    -0.44090000     0.67550000
C       2.56880000    -0.59810000     0.20890000
C       1.53990000     0.13730000     0.81570000
C       0.21220000     0.02030000     0.36530000
C      -0.08270000    -0.83910000    -0.71420000
C       0.95580000    -1.56240000    -1.32620000
C       2.26950000    -1.43850000    -0.87140000
C      -1.47800000    -0.96940000    -1.19690000
O      -1.74150000    -1.73910000    -2.16170000
C      -2.56430000    -0.19760000    -0.54890000
C      -3.89250000    -0.31350000    -0.99900000
C      -4.91310000     0.41590000    -0.38560000
C      -4.62170000     1.26680000     0.68060000
C      -3.30840000     1.39230000     1.13840000
C      -2.26940000     0.66370000     0.53040000
C      -0.87420000     0.79350000     1.01290000
O      -0.61100000     1.56360000     1.97730000
H       4.69700000     0.48950000    -1.16080000
H       5.72770000     0.79570000     0.28880000
H       4.15060000     1.65560000     0.11400000
H       4.01510000    -0.23190000     1.76730000
H       4.55610000    -1.38400000     0.50810000
H       1.77890000     0.80110000     1.63810000
H       0.75390000    -2.22280000    -2.16020000
H       3.05550000    -1.99830000    -1.36330000
H      -4.14290000    -0.96750000    -1.82490000
H      -5.93220000     0.32110000    -0.73780000
H      -5.41530000     1.83080000     1.15380000
H      -3.10670000     2.05890000     1.96750000
