24
1SJ0-anthra-Active11th charge=0 mult=1 PIC50=5.422244027
C       3.66680000     0.96390000    -0.35820000
C       3.78320000    -0.38840000    -0.03670000
C       2.63860000    -1.15640000     0.18750000
C       1.36070000    -0.57520000     0.09160000
C       1.24290000     0.79380000    -0.23380000
C       2.40540000     1.55470000    -0.45700000
C      -0.09780000     1.41660000    -0.33760000
O      -0.20310000     2.64000000    -0.62850000
C      -1.31510000     0.60520000    -0.10040000
C      -1.19750000    -0.76360000     0.22500000
C       0.14340000    -1.38640000     0.32880000
O       0.24880000    -2.60990000     0.61970000
C      -2.35980000    -1.52470000     0.44820000
C      -3.62270000    -0.93420000     0.34950000
C      -3.73760000     0.41930000     0.02770000
C      -2.59270000     1.18640000    -0.19640000
Cl     -5.06450000    -1.89360000     0.63010000
H       4.55610000     1.55620000    -0.53140000
H       4.76260000    -0.84300000     0.03900000
H       2.75410000    -2.20400000     0.43570000
H       2.34010000     2.60600000    -0.70780000
H      -2.28940000    -2.57600000     0.69880000
H      -4.71480000     0.87910000    -0.04940000
H      -2.70760000     2.23410000    -0.44460000
