28
1SJ0-anthra-Active12th charge=0 mult=1 PIC50=5.420216403
C       3.89480000    -1.33550000     0.59970000
C       4.10440000     0.04090000     0.69750000
C       3.04460000     0.92710000     0.49000000
C       1.76010000     0.43900000     0.19000000
C       1.54900000    -0.94730000     0.09140000
C       2.62470000    -1.83050000     0.29390000
C       0.20680000    -1.45370000    -0.26150000
O       0.09280000    -2.62760000    -0.70700000
C      -0.97990000    -0.55320000    -0.16350000
C      -2.30920000    -1.05510000    -0.20750000
C      -3.38380000    -0.16300000    -0.25290000
C      -3.17530000     1.20640000    -0.15550000
C      -1.88580000     1.72500000    -0.00980000
C      -0.76610000     0.85080000    -0.06370000
C       0.63590000     1.36400000    -0.06120000
O       0.88410000     2.56870000    -0.33750000
N      -1.75050000     3.12970000     0.24660000
N      -2.60140000    -2.45820000    -0.15070000
H       4.71810000    -2.02000000     0.75830000
H       5.08990000     0.42200000     0.93190000
H       3.22780000     1.99150000     0.56780000
H       2.48270000    -2.90140000     0.21990000
H      -4.39910000    -0.53600000    -0.30860000
H      -4.03320000     1.86730000    -0.13770000
H      -2.55070000     3.77700000     0.06760000
H      -0.95810000     3.50970000     0.80770000
H      -1.96910000    -3.12960000     0.33570000
H      -3.55340000    -2.80820000    -0.40060000
