24
1SJ0-anthra-Active13th charge=0 mult=1 PIC50=5.394662625
C      -3.72960000    -0.41130000    -0.47480000
C      -3.68870000     0.81300000     0.19250000
C      -2.46290000     1.36270000     0.57360000
C      -1.26070000     0.68910000     0.28900000
C      -1.30210000    -0.55030000    -0.38650000
C      -2.54490000    -1.09160000    -0.76410000
C      -0.04240000    -1.26890000    -0.69160000
O      -0.07940000    -2.37640000    -1.29520000
C       1.26070000    -0.68910000    -0.28900000
C       2.46290000    -1.36280000    -0.57360000
C       3.68870000    -0.81300000    -0.19250000
C       3.72960000     0.41130000     0.47480000
C       2.54490000     1.09160000     0.76410000
C       1.30210000     0.55030000     0.38650000
C       0.04240000     1.26890000     0.69160000
O       0.07940000     2.37640000     1.29520000
H      -4.68150000    -0.83440000    -0.76870000
H      -4.60900000     1.33760000     0.41510000
H      -2.45630000     2.31420000     1.09040000
H      -2.60180000    -2.04030000    -1.28290000
H       2.45630000    -2.31420000    -1.09040000
H       4.60900000    -1.33750000    -0.41510000
H       4.68150000     0.83440000     0.76870000
H       2.60180000     2.04030000     1.28290000
