30
1SJ0-anthra-Active14th charge=0 mult=1 PIC50=5.313301183
C       4.06840000     1.12630000    -1.74640000
C       2.71730000     1.39700000    -1.95280000
C       1.74310000     0.84270000    -1.10520000
C       2.13720000     0.01590000    -0.02810000
C       3.51170000    -0.30300000     0.13260000
C       4.46160000     0.27810000    -0.71370000
O       3.96990000    -1.21190000     1.08910000
C       1.09440000    -0.43060000     0.93130000
O       1.40030000    -0.64340000     2.13480000
C      -0.33300000    -0.44220000     0.51750000
C      -0.72230000     0.38440000    -0.56040000
C       0.30560000     1.11610000    -1.33850000
O      -0.04330000     1.95240000    -2.21690000
C      -2.08200000     0.50730000    -0.89230000
C      -3.05690000    -0.20140000    -0.18150000
C      -2.66930000    -1.04150000     0.86780000
C      -1.32070000    -1.19540000     1.20340000
O      -1.00650000    -2.12690000     2.19570000
C      -4.51340000    -0.02860000    -0.51670000
O      -5.02680000     1.09870000     0.13790000
H       4.81260000     1.56010000    -2.40190000
H       2.43470000     2.03990000    -2.77710000
H       5.51210000     0.04960000    -0.58380000
H       3.36350000    -1.83870000     1.59970000
H      -2.38770000     1.15450000    -1.70580000
H      -3.41760000    -1.60160000     1.41570000
H      -0.07120000    -2.47130000     2.36290000
H      -4.63370000     0.10920000    -1.61250000
H      -5.09590000    -0.93720000    -0.24040000
H      -5.15230000     0.84160000     1.08880000
