29
1SJ0-anthra-Active15th charge=0 mult=1 PIC50=5.299997603
C      -3.31590000     1.57250000     2.49450000
C      -2.05830000     1.92740000     2.01370000
C      -1.35970000     1.07210000     1.14410000
C      -1.94320000    -0.15330000     0.74230000
C      -3.19290000    -0.53660000     1.30370000
C      -3.87590000     0.34670000     2.14580000
O      -3.77400000    -1.78810000     1.08610000
C      -1.24690000    -0.96020000    -0.29820000
O      -1.88820000    -1.80610000    -0.97710000
C       0.17930000    -0.69160000    -0.62210000
C       0.77470000     0.50190000    -0.16450000
C      -0.01150000     1.44940000     0.65840000
O       0.47530000     2.57360000     0.96180000
C       2.11120000     0.78830000    -0.49420000
C       2.86800000    -0.10240000    -1.26930000
C       2.27400000    -1.29240000    -1.71390000
C       0.94320000    -1.59300000    -1.39650000
O       0.38850000    -2.79250000    -1.84440000
C       4.27480000     0.21070000    -1.60830000
O       4.95780000    -0.58930000    -2.30360000
O       4.85860000     1.39380000    -1.16210000
H      -3.84870000     2.24020000     3.15940000
H      -1.63260000     2.87390000     2.32270000
H      -4.83730000     0.06570000     2.55730000
H      -3.26960000    -2.58600000     0.72640000
H       2.56420000     1.70680000    -0.14200000
H       2.84350000    -1.99560000    -2.30930000
H       0.92120000    -3.45320000    -2.39810000
H       5.82030000     1.61730000    -1.38870000
