51
1SJ0-anthra-Active16th charge=0 mult=1 PIC50=5.250001023
C      -7.38570000     1.51020000    -1.84430000
C      -5.93190000     1.27900000    -1.55220000
C      -5.50520000     0.05620000    -1.02400000
C      -4.14130000    -0.18540000    -0.77960000
C      -3.18610000     0.80990000    -1.08200000
C      -3.62290000     2.03800000    -1.63620000
C      -4.98630000     2.25780000    -1.87080000
O      -2.70990000     3.04270000    -1.95870000
C      -1.74410000     0.54310000    -0.81610000
O      -0.88890000     1.43170000    -1.07760000
C      -1.30470000    -0.76280000    -0.24320000
C      -2.27630000    -1.74680000     0.04990000
C      -3.70980000    -1.48140000    -0.20950000
O      -4.56970000    -2.36610000     0.05740000
C      -1.88000000    -2.98170000     0.59010000
C      -0.53360000    -3.24910000     0.84010000
C       0.43030000    -2.28570000     0.55360000
C       0.06400000    -1.03750000     0.01400000
O       1.03270000    -0.06020000    -0.27640000
C       2.43370000    -0.18460000    -0.03580000
C       3.14240000     1.05250000    -0.61190000
C       4.65140000     0.97010000    -0.32270000
C       4.88520000     0.69180000     1.17680000
C       4.02460000    -0.51450000     1.63300000
O       2.65520000    -0.26920000     1.36200000
C       4.18600000    -0.79420000     3.13430000
O       3.69240000     0.27260000     3.90130000
O       6.25040000     0.47130000     1.43460000
O       5.26140000     2.18150000    -0.68680000
O       2.92060000     1.10970000    -1.99760000
O      -0.14090000    -4.47440000     1.37500000
H      -7.61520000     1.16250000    -2.87310000
H      -7.63590000     2.58950000    -1.76220000
H      -8.02370000     0.95570000    -1.12350000
H      -6.24180000    -0.70710000    -0.80300000
H      -5.30900000     3.19730000    -2.30310000
H      -3.00610000     3.92650000    -2.35630000
H      -2.61540000    -3.74310000     0.81910000
H       1.46510000    -2.52420000     0.75630000
H       2.80160000    -1.09750000    -0.56140000
H       2.71740000     1.95950000    -0.11860000
H       5.07700000     0.13370000    -0.92780000
H       4.56830000     1.59350000     1.74590000
H       4.36370000    -1.43450000     1.10010000
H       3.60380000    -1.70510000     3.39000000
H       5.25140000    -1.01010000     3.38160000
H       4.45840000     0.87750000     4.08170000
H       6.52330000    -0.34210000     0.93470000
H       6.23040000     1.99430000    -0.79510000
H       3.08880000     2.04720000    -2.27730000
H      -0.81530000    -5.19800000     1.59520000
