30
1SJ0-anthra-Active17th charge=0 mult=1 PIC50=5.165579296
C      -3.59340000     1.12210000    -0.26990000
C      -3.80350000    -0.20600000    -0.62520000
C      -2.73190000    -1.09130000    -0.74260000
C      -1.40440000    -0.61320000    -0.59140000
C      -1.19050000     0.73750000    -0.21660000
C      -2.30150000     1.59900000    -0.02000000
N      -2.14690000     2.93770000     0.47730000
O      -1.42990000     3.15440000     1.47610000
O      -2.98350000     3.93500000     0.03170000
C       0.20930000     1.22360000    -0.10030000
O       0.47840000     2.43830000    -0.30520000
C       1.30590000     0.25000000     0.12450000
C       2.55390000     0.63330000     0.67930000
C       3.59820000    -0.30140000     0.73110000
C       3.40750000    -1.60650000     0.28520000
C       2.16740000    -2.00990000    -0.21840000
C       1.10770000    -1.08180000    -0.30400000
C      -0.21420000    -1.46630000    -0.86180000
O      -0.30310000    -2.46040000    -1.63130000
O       1.98910000    -3.33270000    -0.62440000
N       2.75840000     1.93830000     1.24500000
O       3.87520000     2.49000000     1.16060000
O       1.80980000     2.48260000     2.08010000
O      -3.03450000    -2.43510000    -0.97520000
H      -4.45050000     1.77020000    -0.13640000
H      -4.81590000    -0.56420000    -0.76410000
H       4.55810000    -0.02600000     1.14990000
H       4.22430000    -2.31430000     0.35050000
H       2.73800000    -4.01320000    -0.56760000
H      -2.37760000    -3.19000000    -0.83690000
