26
1SJ0-anthra-Active18th charge=0 mult=1 PIC50=5.163739197
C      -3.73120000     0.71050000    -0.08760000
C      -2.56860000     1.46840000    -0.20130000
C      -1.30470000     0.85610000    -0.11810000
C      -1.20990000    -0.53740000     0.08210000
C      -2.40320000    -1.29750000     0.19620000
C      -3.65010000    -0.66450000     0.11000000
O      -2.35920000    -2.67790000     0.39470000
C       0.13560000    -1.17680000     0.16880000
O       0.19850000    -2.41900000     0.34720000
C       1.38870000    -0.36140000     0.04660000
C       1.25660000     1.03910000    -0.15450000
C      -0.08020000     1.67090000    -0.24020000
O      -0.17560000     2.91710000    -0.41920000
C       2.40100000     1.84690000    -0.27530000
C       3.67120000     1.29270000    -0.20050000
C       3.82200000    -0.07300000    -0.00450000
C       2.71050000    -0.91300000     0.12080000
O       3.00160000    -2.26800000     0.31470000
H      -4.69890000     1.19110000    -0.15300000
H      -2.66010000     2.53640000    -0.35460000
H      -4.56180000    -1.24210000     0.19670000
H      -3.20320000    -3.23280000     0.47790000
H       2.31550000     2.91550000    -0.42870000
H       4.54450000     1.92540000    -0.29500000
H       4.82030000    -0.48940000     0.05150000
H       2.34080000    -3.01750000     0.42540000
