25
1SJ0-anthra-Active19th charge=0 mult=1 PIC50=5.099999035
C      -4.00180000     0.18450000    -0.13770000
C      -3.65960000     1.53570000    -0.19100000
C      -2.31710000     1.91980000    -0.17280000
C      -1.29960000     0.95050000    -0.10080000
C      -1.64610000    -0.41740000    -0.04690000
C      -3.00310000    -0.78900000    -0.06610000
C      -0.58300000    -1.44700000     0.02900000
O      -0.89250000    -2.66940000     0.07720000
C       0.84310000    -1.04370000     0.04850000
C       1.18960000     0.32370000    -0.00540000
C       0.12630000     1.35350000    -0.08130000
O       0.43570000     2.57600000    -0.12950000
C       2.54660000     0.69560000     0.01370000
C       3.54970000    -0.27920000     0.08560000
C       3.20250000    -1.63020000     0.13870000
C       1.85990000    -2.01290000     0.12040000
O       4.89420000     0.08530000     0.10470000
H      -5.04330000    -0.10960000    -0.15190000
H      -4.43620000     2.28760000    -0.24640000
H      -2.07600000     2.97460000    -0.21500000
H      -3.29310000    -1.83140000    -0.02570000
H       2.82960000     1.74020000    -0.02700000
H       3.97550000    -2.38620000     0.19420000
H       1.61810000    -3.06750000     0.16270000
H       5.18070000     1.05660000     0.06750000
