60
1SJ0-anthra-Active1st charge=0 mult=1 PIC50=5.099999035
C      -0.62130000     1.11740000     2.03240000
C       0.75600000     1.06460000     1.84270000
C       1.35700000    -0.05400000     1.24790000
C       0.53900000    -1.12080000     0.80110000
C      -0.86050000    -1.07110000     1.00110000
C      -1.44280000     0.05330000     1.63640000
N      -2.85240000     0.09200000     1.93010000
C      -3.67030000     1.30100000     1.80600000
C      -3.62870000     1.85170000     0.37710000
N      -4.06630000     0.82480000    -0.57610000
C      -3.84750000     1.27750000    -1.95390000
C      -4.23120000     0.17540000    -2.94370000
O      -3.46780000    -0.97980000    -2.72130000
C      -1.68320000    -2.19160000     0.47310000
O      -2.87050000    -1.98510000     0.10530000
C      -1.05120000    -3.51750000     0.24940000
C      -1.80350000    -4.71850000     0.19740000
C      -1.17170000    -5.91520000    -0.14420000
C       0.20390000    -5.95790000    -0.34960000
C       0.97920000    -4.80480000    -0.21810000
C       0.34900000    -3.56140000     0.04010000
C       1.09850000    -2.27970000     0.05900000
O       2.13000000    -2.13560000    -0.65120000
O       2.36540000    -4.94440000    -0.31820000
O      -3.16450000    -4.77400000     0.50750000
N       2.79340000    -0.13870000     1.16240000
C       3.66010000     1.01000000     0.89420000
C       3.34210000     1.61470000    -0.48410000
N       4.28880000     2.67420000    -0.86680000
C       4.10760000     3.89580000    -0.07030000
C       4.79270000     5.07980000    -0.75270000
O       6.18600000     4.92340000    -0.73720000
H      -1.03840000     1.98070000     2.53160000
H       1.35370000     1.88910000     2.20450000
H      -3.33430000    -0.79030000     2.21500000
H      -3.32160000     2.07460000     2.52080000
H      -4.72310000     1.06080000     2.07090000
H      -4.29260000     2.74330000     0.31270000
H      -2.58920000     2.17690000     0.14980000
H      -5.09510000     0.68060000    -0.44160000
H      -2.77560000     1.53250000    -2.10910000
H      -4.46080000     2.18230000    -2.16460000
H      -5.30620000    -0.07550000    -2.82080000
H      -4.08590000     0.53870000    -3.98640000
H      -2.55760000    -0.79090000    -3.06950000
H      -1.74700000    -6.83100000    -0.20650000
H       0.67950000    -6.90570000    -0.56870000
H       3.02150000    -4.23010000    -0.03440000
H      -3.66490000    -4.02560000     0.96700000
H       3.25250000    -1.06930000     1.28380000
H       4.71870000     0.67110000     0.90810000
H       3.54500000     1.76510000     1.69730000
H       2.29980000     2.00170000    -0.50610000
H       3.40070000     0.80680000    -1.24540000
H       5.26710000     2.32280000    -0.73910000
H       4.53610000     3.76610000     0.94750000
H       3.02660000     4.13990000     0.02990000
H       4.41520000     5.19620000    -1.79470000
H       4.53810000     6.00790000    -0.19760000
H       6.42270000     4.37530000    -1.53000000
