24
1SJ0-anthra-Active20th charge=0 mult=1 PIC50=5.017733291
C       3.63200000    -0.07720000     1.09660000
C       3.66250000    -0.97200000     0.02760000
C       2.49560000    -1.24830000    -0.68770000
C       1.27990000    -0.62870000    -0.33880000
C       1.25080000     0.27550000     0.74180000
C       2.43440000     0.54480000     1.45430000
C      -0.01920000     0.93180000     1.11720000
O      -0.04330000     1.74130000     2.08540000
C      -1.26250000     0.64360000     0.36250000
C      -1.24940000    -0.26390000    -0.72740000
C       0.04000000    -0.92150000    -1.09790000
O       0.09430000    -1.73400000    -2.05980000
C      -2.46490000    -0.51220000    -1.42480000
C      -3.64220000     0.13330000    -1.03220000
C      -3.64130000     1.02100000     0.03840000
C      -2.46260000     1.27640000     0.73240000
Cl     -2.59710000    -1.61310000    -2.79560000
H       4.53800000     0.13530000     1.64940000
H       4.59230000    -1.45290000    -0.24770000
H       2.54590000    -1.94680000    -1.51350000
H       2.43530000     1.23600000     2.28780000
H      -4.56800000    -0.05440000    -1.56170000
H      -4.55920000     1.51400000     0.33220000
H      -2.49150000     1.97200000     1.56170000
