67
1SJ0-anthra-Active2nd charge=0 mult=1 PIC50=5.013743456
C      -5.13970000     2.39950000     0.92070000
C      -5.21390000     1.04650000     0.18880000
C      -4.94590000     1.11580000    -1.34150000
C      -3.44140000     1.17170000    -1.67220000
C      -2.71710000     0.07590000    -0.87970000
C      -3.04270000     0.18790000     0.62060000
O      -4.43930000     0.03990000     0.83290000
O      -2.39770000    -0.87310000     1.30960000
C      -1.18740000    -0.48230000     1.94310000
C      -0.95310000    -1.39850000     3.15730000
C      -0.72250000    -2.90290000     2.78170000
C      -0.38060000    -3.10660000     1.27420000
C       0.41540000    -1.94980000     0.70350000
C      -0.00870000    -0.63770000     0.99000000
C       0.69040000     0.46250000     0.43100000
C       1.81120000     0.23600000    -0.40820000
C       2.19560000    -1.08740000    -0.72890000
C       1.53120000    -2.17810000    -0.11810000
O       1.97750000    -3.49510000    -0.27490000
C       3.25300000    -1.29090000    -1.75610000
O       3.31660000    -2.36790000    -2.40980000
C       4.18100000    -0.19240000    -2.08920000
C       3.87160000     1.12720000    -1.70210000
C       2.59920000     1.37720000    -0.97130000
O       2.18690000     2.56070000    -0.83400000
C       4.76900000     2.17790000    -2.02520000
C       5.94550000     1.88450000    -2.74370000
C       6.23290000     0.57820000    -3.13240000
C       5.35850000    -0.45560000    -2.80910000
O       4.47760000     3.49110000    -1.61540000
C       5.31040000     4.62050000    -1.85630000
O       0.28990000     1.78380000     0.67250000
C       0.42550000    -3.45310000     3.61980000
O       1.55270000    -3.00060000     3.47160000
C       0.21050000    -4.55340000     4.62220000
O      -1.88790000    -3.63810000     3.08230000
N      -2.87170000     2.48970000    -1.37120000
O      -5.61860000     2.20120000    -1.93150000
H      -5.33760000     2.24670000     2.00200000
H      -5.91210000     3.08960000     0.52240000
H      -4.15330000     2.88940000     0.80910000
H      -6.27290000     0.72460000     0.29240000
H      -5.33390000     0.16870000    -1.78890000
H      -3.30470000     0.96390000    -2.75860000
H      -3.03950000    -0.92280000    -1.25080000
H      -1.62440000     0.15570000    -1.05230000
H      -2.72240000     1.18570000     0.99240000
H      -1.25280000     0.52860000     2.39330000
H      -0.07970000    -0.99090000     3.71530000
H      -1.81740000    -1.30640000     3.85270000
H       0.13000000    -4.08510000     1.13740000
H      -1.31560000    -3.17870000     0.67730000
H       2.91310000    -3.74000000    -0.56940000
H       6.64950000     2.66280000    -3.00680000
H       7.14130000     0.36560000    -3.68310000
H       5.60610000    -1.46450000    -3.11680000
H       6.30090000     4.47530000    -1.37490000
H       5.43430000     4.77980000    -2.95000000
H       4.83510000     5.52080000    -1.41600000
H      -0.55790000     2.05950000     1.14450000
H      -0.16370000    -5.45980000     4.10450000
H      -0.53560000    -4.23030000     5.37990000
H       1.16130000    -4.80370000     5.13970000
H      -2.64260000    -3.24720000     2.56530000
H      -1.85310000     2.47340000    -1.60860000
H      -3.29890000     3.19460000    -2.01500000
H      -6.58740000     1.98060000    -1.91410000
