29
1SJ0-anthra-Active3rd charge=0 mult=1 PIC50=5.008773924
C      -4.42220000    -0.28900000    -0.07190000
C      -2.94410000    -0.56790000     0.01140000
C      -1.98960000     0.46560000    -0.14890000
C      -0.60080000     0.16490000    -0.04460000
C      -0.19420000    -1.18130000     0.11610000
C      -1.15890000    -2.18890000     0.25570000
C      -2.51420000    -1.88270000     0.22380000
C       1.24690000    -1.53480000     0.13180000
O       1.60130000    -2.73360000     0.30550000
C       2.27140000    -0.48800000    -0.06990000
C       3.63460000    -0.82400000    -0.16380000
C       4.59640000     0.17190000    -0.34610000
C       4.21020000     1.50950000    -0.43360000
C       2.86080000     1.85640000    -0.33900000
C       1.88060000     0.86250000    -0.15940000
C       0.44970000     1.22640000    -0.04070000
O       0.13990000     2.43580000     0.13500000
N      -2.43400000     1.79200000    -0.47760000
H      -4.72440000     0.38130000     0.75980000
H      -5.02300000    -1.22050000     0.00330000
H      -4.66230000     0.19180000    -1.04360000
H      -0.86570000    -3.22230000     0.39360000
H      -3.23230000    -2.68510000     0.34190000
H       3.95740000    -1.85540000    -0.09770000
H       5.64310000    -0.09400000    -0.41880000
H       4.95790000     2.27950000    -0.57410000
H       2.58430000     2.90090000    -0.40990000
H      -1.88410000     2.39690000    -1.12580000
H      -3.38460000     2.13210000    -0.21440000
