68
1SJ0-anthra-Active4th charge=0 mult=1 PIC50=4.973740554
C       5.06640000    -0.64500000    -1.87850000
C       4.18790000    -1.30180000    -0.80890000
C       4.79060000    -2.62550000    -0.25010000
C       4.37610000    -2.84720000     1.23130000
C       2.96010000    -2.29140000     1.44850000
C       2.89250000    -0.78680000     1.07440000
O       3.97240000    -0.37600000     0.24070000
O       1.65390000    -0.52160000     0.42760000
C       1.13300000     0.76120000     0.74560000
C       1.92980000     1.84800000    -0.02610000
C       1.16640000     3.18920000    -0.28660000
C      -0.06870000     3.31490000     0.62670000
C      -0.96990000     2.10960000     0.46190000
C      -0.36330000     0.83660000     0.44080000
C      -1.17480000    -0.31440000     0.30220000
C      -2.54910000    -0.17770000    -0.00760000
C      -3.16090000     1.09110000     0.07860000
C      -2.37590000     2.22840000     0.36960000
O      -3.01600000     3.45370000     0.58040000
C      -4.64000000     1.19470000    -0.09100000
O      -5.20190000     2.32310000    -0.15170000
C      -5.46810000    -0.02910000    -0.18790000
C      -4.84930000    -1.28470000    -0.35650000
C      -3.37000000    -1.34100000    -0.44270000
O      -2.81360000    -2.33960000    -0.97290000
C      -5.64440000    -2.45310000    -0.45610000
C      -7.04670000    -2.33900000    -0.38970000
C      -7.64990000    -1.09320000    -0.22340000
C      -6.86960000     0.05510000    -0.12390000
O      -5.02110000    -3.70420000    -0.60800000
C      -5.70930000    -4.94610000    -0.71740000
O      -0.61700000    -1.57580000     0.52790000
C       2.07690000     4.38890000    -0.01790000
O       2.62220000     4.49150000     1.07320000
C       2.32420000     5.45040000    -1.06580000
O       2.94840000     6.57760000    -0.51190000
O       0.70110000     3.21290000    -1.62060000
N       5.31630000    -2.19280000     2.15260000
O       6.19030000    -2.64740000    -0.38330000
H       6.02630000    -0.29600000    -1.43890000
H       4.53790000     0.23150000    -2.31070000
H       5.27860000    -1.36440000    -2.69700000
H       3.21990000    -1.54050000    -1.31510000
H       4.36220000    -3.45950000    -0.85750000
H       4.36590000    -3.94180000     1.44270000
H       2.64120000    -2.43980000     2.50360000
H       2.25460000    -2.87240000     0.81200000
H       3.00140000    -0.23260000     2.03600000
H       1.20960000     0.96710000     1.83840000
H       2.86650000     2.03710000     0.54320000
H       2.25980000     1.41860000    -0.99810000
H      -0.57740000     4.25860000     0.34570000
H       0.23370000     3.38950000     1.69490000
H      -2.57990000     4.25670000     1.01110000
H      -7.68360000    -3.20920000    -0.46070000
H      -8.72900000    -1.01780000    -0.17070000
H      -7.36430000     1.00980000     0.00570000
H      -6.31740000    -5.12710000     0.19320000
H      -4.96710000    -5.76370000    -0.81440000
H      -6.36020000    -4.94530000    -1.61680000
H      -1.16260000    -2.40720000     0.71320000
H       1.36450000     5.74470000    -1.54460000
H       2.98850000     5.03200000    -1.85210000
H       2.24860000     7.06940000    -0.00800000
H       1.48300000     3.13100000    -2.22800000
H       6.22860000    -2.70090000     2.11400000
H       4.97000000    -2.32600000     3.13140000
H       6.47130000    -3.59560000    -0.27590000
