26
1SJ0-anthra-Active5th charge=0 mult=1 PIC50=4.925066593
C       4.21810000     0.29440000     0.07430000
C       4.03000000    -1.04390000     0.41960000
C       2.73930000    -1.56910000     0.51140000
C       1.61950000    -0.75590000     0.25710000
C       1.81000000     0.59890000    -0.09250000
C       3.11650000     1.11380000    -0.18100000
C       0.63800000     1.46460000    -0.36240000
O       0.80810000     2.67530000    -0.67480000
C      -0.73360000     0.91110000    -0.26610000
C      -0.92440000    -0.44290000     0.08330000
C       0.24800000    -1.30900000     0.35330000
O       0.07810000    -2.51970000     0.66580000
C      -2.23060000    -0.95840000     0.17190000
C      -3.33890000    -0.14040000    -0.08320000
C      -3.14350000     1.20110000    -0.42910000
C      -1.85230000     1.72410000    -0.52030000
N      -4.66300000    -0.67300000     0.00940000
H       5.21990000     0.69820000     0.00400000
H       4.88610000    -1.67610000     0.61670000
H       2.61830000    -2.61080000     0.78110000
H       3.28740000     2.14930000    -0.44730000
H      -2.39140000    -1.99580000     0.43910000
H      -3.99280000     1.84260000    -0.62840000
H      -1.73020000     2.76570000    -0.78990000
H      -4.82090000    -1.67290000     0.26670000
H      -5.49580000    -0.07140000    -0.17890000
