26
1SJ0-anthra-Active6th charge=0 mult=1 PIC50=4.913739855
C       3.63820000    -1.13600000    -0.50280000
C       2.35830000    -1.66030000    -0.69310000
C       1.22070000    -0.86770000    -0.45640000
C       1.38150000     0.46620000    -0.02350000
C       2.67710000     0.98200000     0.16430000
C       3.80190000     0.18250000    -0.07490000
O       5.08620000     0.68980000     0.11000000
C       0.18960000     1.31030000     0.22890000
O       0.33290000     2.50280000     0.61590000
C      -1.17030000     0.75650000     0.02780000
C      -1.33110000    -0.57740000    -0.40510000
C      -0.13930000    -1.42150000    -0.65750000
O      -0.28270000    -2.61400000    -1.04450000
C      -2.62660000    -1.09330000    -0.59300000
C      -3.75010000    -0.29690000    -0.35470000
C      -3.58790000     1.02460000     0.07420000
C      -2.30800000     1.54900000     0.26450000
O      -5.02320000    -0.82900000    -0.54740000
H       4.50570000    -1.75670000    -0.68860000
H       2.25950000    -2.68610000    -1.02560000
H       2.81810000     2.00330000     0.49600000
H       5.24040000     1.64230000     0.41980000
H      -2.77030000    -2.11430000    -0.92460000
H      -4.45380000     1.64720000     0.26060000
H      -2.20930000     2.57480000     0.59700000
H      -5.85790000    -0.27820000    -0.38370000
