29
1SJ0-anthra-Active7th charge=0 mult=1 PIC50=4.849999245
C       4.40800000     0.06370000     0.39610000
C       2.95800000     0.43400000     0.22890000
C       1.94220000    -0.54650000     0.29060000
C       0.57860000    -0.16790000     0.13730000
C       0.26320000     1.18930000    -0.11140000
C       1.28830000     2.14620000    -0.15880000
C       2.61600000     1.77450000     0.02200000
C      -1.14410000     1.60830000    -0.32140000
O      -1.41630000     2.82360000    -0.52620000
C      -2.23110000     0.60640000    -0.29980000
C      -3.56200000     0.98600000    -0.55590000
C      -4.58520000     0.03630000    -0.53000000
C      -4.29350000    -1.29790000    -0.24790000
C      -2.97760000    -1.68770000     0.00950000
C      -1.93520000    -0.74160000    -0.01510000
C      -0.53870000    -1.15070000     0.26660000
O      -0.31370000    -2.33050000     0.65060000
N       2.30780000    -1.92060000     0.47070000
O       2.19670000    -2.72360000    -0.47840000
O       2.93000000    -2.32300000     1.62930000
H       5.07860000     0.88880000     0.07400000
H       4.65220000    -0.82660000    -0.22110000
H       4.61400000    -0.16000000     1.46350000
H       1.06420000     3.19080000    -0.33590000
H       3.38310000     2.53840000    -0.01600000
H      -3.81240000     2.01600000    -0.77680000
H      -5.60620000     0.33580000    -0.72870000
H      -5.08870000    -2.03210000    -0.22820000
H      -2.77640000    -2.72950000     0.22550000
