27
1SJ0-anthra-Active8th charge=0 mult=1 PIC50=4.775065718
C       4.33030000     0.11280000     1.53080000
C       3.06420000    -0.07950000     0.74900000
C       1.83780000     0.35060000     1.27510000
C       0.65010000     0.20780000     0.53440000
C       0.69930000    -0.36200000    -0.75560000
C       1.93580000    -0.77350000    -1.28310000
C       3.10780000    -0.62700000    -0.53920000
C      -0.54580000    -0.51690000    -1.54460000
O      -0.50140000    -1.02780000    -2.69770000
C      -1.84280000    -0.07300000    -0.98210000
C      -3.03100000    -0.21520000    -1.72240000
C      -4.25110000     0.20480000    -1.18840000
C      -4.30010000     0.76980000     0.08600000
C      -3.12920000     0.91740000     0.83250000
C      -1.89240000     0.49880000     0.30790000
C      -0.64730000     0.65320000     1.09660000
O      -0.69200000     1.16460000     2.24950000
H       4.13340000     0.02970000     2.62090000
H       4.74890000     1.11770000     1.31370000
H       5.08150000    -0.65910000     1.25870000
H       1.81280000     0.79560000     2.26270000
H       1.99870000    -1.20610000    -2.27380000
H       4.05070000    -0.94230000    -0.96890000
H      -3.01790000    -0.65070000    -2.71360000
H      -5.16060000     0.09190000    -1.76430000
H      -5.24750000     1.09420000     0.49670000
H      -3.19220000     1.35860000     1.81930000
