30
1SJ0-anthra-Active9th charge=0 mult=1 PIC50=4.701088003
C       4.71930000     1.25480000     0.35410000
C       3.38650000     0.56560000     0.34300000
C       2.20670000     1.31560000     0.28540000
C       0.95470000     0.67890000     0.24620000
C       0.88230000    -0.73180000     0.26430000
C       2.08350000    -1.48630000     0.23720000
C       3.31710000    -0.83070000     0.29730000
O       2.09830000    -2.87770000     0.11450000
C      -0.45740000    -1.36540000     0.37150000
O      -0.57910000    -2.48030000     0.94550000
C      -1.66850000    -0.60230000    -0.02700000
C      -1.59170000     0.80890000    -0.04690000
C      -0.29000000     1.48090000     0.17780000
O      -0.23860000     2.73720000     0.28610000
C      -2.74980000     1.56860000    -0.28410000
C      -3.97380000     0.94190000    -0.51590000
C      -4.04710000    -0.45320000    -0.53750000
C      -2.90540000    -1.23210000    -0.32440000
O      -3.03700000    -2.61690000    -0.45160000
O      -5.11120000     1.71590000    -0.73600000
H       4.65240000     2.22810000     0.88540000
H       5.05110000     1.43390000    -0.68990000
H       5.47860000     0.63250000     0.87410000
H       2.26800000     2.39730000     0.27210000
H       4.22850000    -1.41660000     0.28490000
H       1.28930000    -3.42400000    -0.14730000
H      -2.70740000     2.65080000    -0.29130000
H      -4.99280000    -0.93800000    -0.74640000
H      -2.25150000    -3.24790000    -0.53040000
H      -6.01500000     1.29220000    -0.91090000
