63
1SJ0-cocrystal charge=1 mult=1 PIC50=4.349999603
O       4.04560000     4.51070000     1.14580000
C       3.93310000     3.27940000     0.50370000
C       4.88830000     2.27730000     0.70790000
C       4.76450000     1.04310000     0.06330000
C       3.68460000     0.79440000    -0.80710000
C       3.47420000    -0.55200000    -1.48840000
S       4.98810000    -1.22530000    -2.26900000
C       5.71970000    -2.05610000    -0.84230000
C       7.08480000    -2.36720000    -0.90130000
C       7.71980000    -2.99510000     0.17450000
O       9.07540000    -3.30250000     0.08930000
C       6.98930000    -3.30740000     1.32600000
C       5.63330000    -2.98460000     1.40210000
C       4.98990000    -2.35980000     0.32740000
O       3.64690000    -2.00640000     0.47810000
C       2.80290000    -1.61520000    -0.59900000
C       1.46720000    -1.13740000    -0.07080000
C       0.30670000    -1.31520000    -0.84100000
C      -0.92410000    -0.82760000    -0.39270000
C      -1.01270000    -0.14390000     0.83470000
O      -2.22320000     0.36550000     1.32760000
C      -3.47360000     0.26870000     0.64970000
C      -4.55980000     0.94670000     1.50250000
N      -5.91180000     0.97940000     0.88940000
C      -5.96400000     1.82440000    -0.32610000
C      -7.41170000     1.98140000    -0.81510000
C      -8.04300000     0.60880000    -1.07300000
C      -7.91450000    -0.29320000     0.15930000
C      -6.45070000    -0.37340000     0.61940000
C       0.14570000     0.04320000     1.59610000
C       1.37690000    -0.44220000     1.14820000
C       2.72890000     1.81140000    -0.99970000
C       2.85440000     3.04250000    -0.35100000
H       4.81630000     4.71240000     1.77240000
H       5.72680000     2.45200000     1.37000000
H       5.51880000     0.29870000     0.25280000
H       2.78940000    -0.38860000    -2.35030000
H       7.65620000    -2.12470000    -1.78860000
H       9.56440000    -3.75770000     0.85140000
H       7.47300000    -3.79120000     2.16520000
H       5.07980000    -3.21310000     2.30390000
H       2.62620000    -2.52010000    -1.22360000
H       0.35620000    -1.82670000    -1.79440000
H      -1.79830000    -0.98260000    -1.01020000
H      -3.71600000    -0.80460000     0.50470000
H      -3.38220000     0.77140000    -0.33450000
H      -4.61240000     0.41930000     2.48220000
H      -4.23150000     1.98680000     1.72860000
H      -6.53220000     1.42640000     1.60790000
H      -5.36540000     1.37690000    -1.15000000
H      -5.55420000     2.83670000    -0.10990000
H      -8.00700000     2.52880000    -0.05160000
H      -7.42390000     2.57640000    -1.75350000
H      -9.11720000     0.73760000    -1.32700000
H      -7.54050000     0.12590000    -1.94010000
H      -8.54410000     0.10840000     0.98320000
H      -8.28130000    -1.31240000    -0.08940000
H      -5.86470000    -0.88400000    -0.17620000
H      -6.40340000    -0.99690000     1.54020000
H       0.09280000     0.57560000     2.53730000
H       2.26080000    -0.26200000     1.74720000
H       1.87380000     1.64760000    -1.64400000
H       2.10840000     3.81110000    -0.50840000
