63
2OUZ-cocrystal charge=1 mult=1 PIC50=4.300000202
O      -3.39730000     6.22960000     0.48040000
C      -3.27730000     4.87810000     0.16500000
C      -3.05030000     4.49700000    -1.16050000
C      -2.92000000     3.14600000    -1.49190000
C      -3.02100000     2.15960000    -0.49630000
C      -3.26550000     2.54020000     0.83410000
C      -3.37910000     3.89990000     1.16320000
C      -3.31680000     1.48410000     1.90110000
C      -4.08150000     0.22480000     1.44510000
C      -3.98500000    -0.11510000    -0.08210000
C      -4.02570000    -1.62490000    -0.35700000
C      -3.26990000    -2.23500000    -1.38530000
C      -3.37160000    -3.60780000    -1.62950000
C      -4.24860000    -4.39160000    -0.88080000
C      -5.03890000    -3.80180000     0.10470000
C      -4.94100000    -2.43040000     0.35520000
C      -2.87260000     0.69150000    -0.83200000
C      -1.42060000     0.25770000    -0.62030000
C      -0.44590000     0.73260000    -1.51770000
C       0.89720000     0.37840000    -1.37220000
C       1.30160000    -0.46120000    -0.33200000
O       2.66180000    -0.78510000    -0.22840000
C       3.22000000    -1.61280000     0.78760000
C       4.74030000    -1.74370000     0.60970000
N       5.44580000    -0.44490000     0.78810000
C       6.84460000    -0.64020000     1.20410000
C       7.67890000    -0.73350000    -0.05840000
C       6.90640000     0.06470000    -1.08960000
C       5.53290000     0.31970000    -0.47250000
C       0.33780000    -0.94980000     0.56640000
C      -1.00650000    -0.59550000     0.42300000
H      -3.56130000     6.53910000     1.43120000
H      -2.97100000     5.24960000    -1.93460000
H      -2.74150000     2.87030000    -2.52350000
H      -3.54370000     4.19910000     2.19110000
H      -2.27420000     1.21210000     2.16950000
H      -3.79670000     1.87980000     2.82300000
H      -3.73150000    -0.62660000     2.06750000
H      -5.15490000     0.36590000     1.70310000
H      -4.93700000     0.26180000    -0.52300000
H      -2.60050000    -1.66880000    -2.01400000
H      -2.77530000    -4.06280000    -2.40990000
H      -4.32750000    -5.45350000    -1.07530000
H      -5.73620000    -4.40610000     0.67050000
H      -5.58930000    -1.99930000     1.10680000
H      -3.09200000     0.57520000    -1.91790000
H      -0.72640000     1.38000000    -2.33840000
H       1.62910000     0.75900000    -2.07350000
H       2.99770000    -1.18470000     1.78940000
H       2.76630000    -2.62580000     0.72460000
H       5.07220000    -2.48080000     1.37420000
H       4.96650000    -2.19370000    -0.38370000
H       4.95880000     0.12780000     1.51890000
H       6.99360000    -1.53240000     1.85170000
H       7.18410000     0.24610000     1.78890000
H       8.69980000    -0.32210000     0.09900000
H       7.75310000    -1.79620000    -0.37850000
H       6.81330000    -0.51260000    -2.03570000
H       7.42040000     1.02810000    -1.30150000
H       5.42710000     1.40760000    -0.25720000
H       4.73760000     0.05290000    -1.20090000
H       0.61550000    -1.60860000     1.37780000
H      -1.70830000    -1.01110000     1.12520000
