59
3ERT-cocrystal charge=1 mult=1 PIC50=4.16374173
C      -5.01570000    -1.44490000     1.32930000
C      -4.51350000    -1.08530000    -0.06640000
C      -3.00180000    -0.94310000    -0.08500000
C      -2.38610000     0.27060000    -0.14370000
C      -3.15180000     1.53480000    -0.10540000
C      -3.71180000     1.99160000     1.09720000
C      -4.42410000     3.19420000     1.12840000
C      -4.57420000     3.95360000    -0.03690000
O      -5.28830000     5.14880000     0.00810000
C      -4.00290000     3.50700000    -1.23670000
C      -3.28960000     2.30500000    -1.26950000
C      -0.91500000     0.39520000    -0.30110000
C      -0.25310000    -0.22540000    -1.37310000
C       1.13170000    -0.10470000    -1.51220000
C       1.87630000     0.64390000    -0.59390000
O       3.26450000     0.72700000    -0.77370000
C       4.15030000     1.42950000     0.09500000
C       5.59790000     1.29490000    -0.39960000
N       6.03800000    -0.11450000    -0.54760000
C       6.16170000    -0.78980000     0.75850000
C       7.33360000    -0.15790000    -1.24870000
C       1.21200000     1.28360000     0.46990000
C      -0.17350000     1.16310000     0.60970000
C      -2.20860000    -2.19460000     0.02370000
C      -2.32620000    -3.19830000    -0.95200000
C      -1.57450000    -4.37280000    -0.84800000
C      -0.70580000    -4.55590000     0.23130000
C      -0.58860000    -3.56560000     1.21010000
C      -1.33860000    -2.39010000     1.11060000
H      -4.59660000    -2.42230000     1.65060000
H      -6.12310000    -1.52340000     1.31660000
H      -4.72400000    -0.66660000     2.06350000
H      -4.81970000    -1.88920000    -0.76840000
H      -5.02870000    -0.16630000    -0.41530000
H      -3.58390000     1.42550000     2.01070000
H      -4.85510000     3.53900000     2.05980000
H      -5.41520000     5.72110000    -0.81850000
H      -4.10990000     4.09040000    -2.14230000
H      -2.85130000     1.97000000    -2.20180000
H      -0.80990000    -0.79980000    -2.10300000
H       1.62990000    -0.59480000    -2.33900000
H       3.87910000     2.50760000     0.10200000
H       4.05710000     1.04500000     1.13200000
H       5.65530000     1.81440000    -1.38330000
H       6.27010000     1.84310000     0.29890000
H       5.34620000    -0.64110000    -1.13180000
H       6.59220000    -1.80820000     0.63460000
H       6.81440000    -0.21200000     1.45040000
H       5.16470000    -0.92820000     1.22660000
H       7.24790000     0.30460000    -2.25660000
H       7.66160000    -1.21000000    -1.40040000
H       8.11840000     0.38200000    -0.67270000
H       1.75600000     1.87470000     1.19370000
H      -0.66670000     1.65660000     1.43820000
H      -2.98310000    -3.06480000    -1.80220000
H      -1.66310000    -5.13990000    -1.60640000
H      -0.12400000    -5.46520000     0.30940000
H       0.08270000    -3.70920000     2.04690000
H      -1.24340000    -1.63290000     1.87920000
