32
6GGB-10thActive charge=0 mult=1 PIC50=4.100000128
C      -3.56550000     1.17720000    -0.05010000
C      -3.74820000    -0.20120000    -0.10850000
C      -2.65190000    -1.06420000    -0.21200000
C      -1.34720000    -0.52240000    -0.32990000
C      -1.16130000     0.88020000    -0.27040000
C      -2.28150000     1.73100000    -0.09360000
N      -2.14020000     3.14560000     0.09770000
C       0.21620000     1.40790000    -0.45080000
O       0.39920000     2.52580000    -1.00360000
C       1.37550000     0.53780000    -0.12330000
C       2.65320000     1.06490000     0.19270000
C       3.73160000     0.19220000     0.37330000
C       3.54900000    -1.18620000     0.31490000
C       2.28270000    -1.73030000     0.07430000
C       1.18970000    -0.86480000    -0.18270000
C      -0.15240000    -1.37320000    -0.56860000
O      -0.26030000    -2.45030000    -1.21450000
N       2.12470000    -3.15400000     0.15010000
N       2.86990000     2.46930000     0.38840000
N      -2.88540000    -2.47770000    -0.14060000
H      -4.43060000     1.81720000     0.07240000
H      -4.75120000    -0.60210000    -0.03010000
H      -1.24120000     3.57380000     0.40700000
H      -2.98010000     3.76640000     0.08420000
H       4.71530000     0.58260000     0.60300000
H       4.39470000    -1.83670000     0.50050000
H       1.19600000    -3.59840000     0.31530000
H       2.96240000    -3.77610000     0.19920000
H       2.08700000     3.12460000     0.60000000
H       3.83990000     2.84580000     0.47990000
H      -3.85770000    -2.85550000    -0.19640000
H      -2.13220000    -3.14920000     0.12220000
