39
6GGB-11thActive charge=0 mult=1 PIC50=4.04999997
C      -5.01960000    -0.34750000     0.99960000
C      -3.51470000    -0.05630000     1.03450000
C      -2.84800000     0.18210000    -0.35440000
C      -3.48560000     1.40230000    -1.06900000
C      -3.07080000    -1.05210000    -1.26850000
C      -1.34520000     0.45790000    -0.10970000
C      -0.34050000    -0.50190000    -0.37810000
C       1.01660000    -0.23660000    -0.11510000
C       1.38850000     0.99860000     0.44840000
C       0.39740000     1.94220000     0.75010000
C      -0.94490000     1.67290000     0.48570000
C       2.81490000     1.28810000     0.73000000
O       3.14550000     2.39720000     1.23310000
C       3.85350000     0.27780000     0.42190000
C       5.21050000     0.54120000     0.68480000
C       6.18560000    -0.41490000     0.39290000
C       5.81950000    -1.64080000    -0.16270000
C       4.47660000    -1.91630000    -0.42900000
C       3.48290000    -0.96270000    -0.14040000
C       2.05650000    -1.25000000    -0.42160000
O       1.72720000    -2.35980000    -0.92420000
H      -5.57780000     0.48560000     0.52590000
H      -5.39210000    -0.45790000     2.03990000
H      -5.23120000    -1.29570000     0.46460000
H      -3.36110000     0.83530000     1.68100000
H      -3.01080000    -0.91000000     1.53980000
H      -2.86560000     1.70680000    -1.94000000
H      -4.50230000     1.16720000    -1.44940000
H      -3.59090000     2.27100000    -0.38680000
H      -2.47130000    -0.96130000    -2.20020000
H      -2.79840000    -1.99320000    -0.74440000
H      -4.13380000    -1.14490000    -1.57640000
H      -0.59660000    -1.46560000    -0.79030000
H       0.65770000     2.89210000     1.20040000
H      -1.67190000     2.42270000     0.76370000
H       5.51850000     1.48560000     1.11580000
H       7.22730000    -0.20460000     0.59820000
H       6.57780000    -2.37970000    -0.38760000
H       4.21670000    -2.87480000    -0.86060000
