30
6GGB-12thActive charge=0 mult=1 PIC50=3.95
C       3.63840000     0.71030000    -0.22570000
C       3.68870000    -0.63840000    -0.56280000
C       2.54390000    -1.43230000    -0.49240000
C       1.32610000    -0.86920000    -0.03700000
C       1.26070000     0.51130000     0.27020000
C       2.43970000     1.29760000     0.19210000
N       2.44410000     2.69180000     0.51580000
O       2.36980000     3.04450000     1.71060000
O       2.88760000     3.59750000    -0.41930000
C      -0.06430000     1.09150000     0.63080000
O      -0.13290000     2.17860000     1.26320000
C      -1.31200000     0.34740000     0.29900000
C      -2.57990000     0.98470000     0.25950000
C      -3.73380000     0.21150000     0.07620000
C      -3.64300000    -1.15860000    -0.14530000
C      -2.40110000    -1.79150000    -0.19230000
C      -1.22390000    -1.04840000     0.07440000
C       0.11000000    -1.68930000     0.17480000
O       0.21530000    -2.87760000     0.58090000
O      -2.37980000    -3.14480000    -0.53800000
N      -2.71090000     2.41250000     0.34180000
O      -3.67210000     2.91800000     0.95740000
O      -1.93950000     3.21790000    -0.46440000
O       2.64880000    -2.75870000    -0.91780000
H       4.54030000     1.30620000    -0.29240000
H       4.62320000    -1.06770000    -0.90200000
H      -4.70870000     0.68230000     0.05410000
H      -4.54550000    -1.72800000    -0.32930000
H      -1.54030000    -3.64190000    -0.80120000
H       1.85100000    -3.35750000    -1.08070000
