24
6GGB-13thActive charge=0 mult=1 PIC50=5.59
C      -3.19110000     0.47410000    -2.65270000
C      -3.11760000     1.77020000    -2.14290000
C      -2.15620000     2.09410000    -1.18350000
C      -1.25240000     1.11660000    -0.72160000
C      -1.32700000    -0.19900000    -1.23910000
C      -2.30380000    -0.50750000    -2.20680000
C      -0.42190000    -1.17320000    -0.77490000
O      -0.47440000    -2.35170000    -1.22590000
C       0.54550000    -0.83770000     0.19370000
C       0.61710000     0.42410000     0.69000000
C      -0.27470000     1.42090000     0.24550000
O      -0.19410000     2.58950000     0.71770000
S       1.79950000     0.82960000     1.87240000
C       2.88760000    -0.36490000     2.42240000
C       2.81390000    -1.66330000     1.91160000
S       1.63600000    -2.05170000     0.73910000
C       3.71300000    -2.70180000     2.34840000
N       4.43480000    -3.53560000     2.69900000
C       3.86660000     0.00540000     3.41330000
N       4.65260000     0.30280000     4.20880000
H      -3.93850000     0.22870000    -3.39630000
H      -3.80810000     2.52710000    -2.49230000
H      -2.12250000     3.10850000    -0.80550000
H      -2.38420000    -1.50530000    -2.62030000
