70
6GGB-14thActive charge=0 mult=1 PIC50=5.39
C      -2.34370000     4.06020000    -1.01210000
C      -2.12920000     2.59140000    -1.34090000
O      -2.12030000     1.83960000    -0.14700000
P      -3.53240000     0.88470000    -0.02480000
O      -4.75220000     1.67740000    -0.45350000
C      -3.33820000    -0.59640000    -1.09800000
C      -4.24620000    -1.77740000    -0.71670000
C      -5.52910000    -1.54130000    -0.16810000
C      -6.37650000    -2.59730000     0.16530000
C      -5.97450000    -3.91240000    -0.06060000
C      -4.74760000    -4.17420000    -0.66590000
C      -3.89470000    -3.11850000    -1.04570000
O      -2.71540000    -3.37220000    -1.76530000
C      -2.24040000    -4.66270000    -2.12820000
N      -1.91560000    -0.95630000    -1.10580000
C      -1.19810000    -1.40250000     0.05990000
O      -1.82860000    -1.81230000     1.07410000
C       0.30220000    -1.32620000     0.10600000
C       0.92030000    -2.13910000    -1.04080000
O       0.66930000     0.05490000     0.01710000
C       1.96270000     0.61030000     0.04040000
C       3.08620000    -0.01420000     0.63580000
C       4.36520000     0.60320000     0.54440000
C       4.46750000     1.90340000    -0.00210000
C       3.33250000     2.52410000    -0.53850000
C       2.10250000     1.87650000    -0.52760000
C       5.76410000     2.62320000     0.01070000
O       5.86110000     3.75840000    -0.53070000
C       6.93580000     2.02340000     0.68320000
C       8.11820000     2.76180000     0.86520000
C       9.20900000     2.19140000     1.52300000
C       9.14050000     0.87740000     1.99050000
C       7.97660000     0.12930000     1.80820000
C       6.86430000     0.69840000     1.16150000
C       5.61860000    -0.08230000     0.97180000
O       5.65640000    -1.33660000     1.09530000
O       2.89870000    -1.18830000     1.36570000
O      -3.70810000     0.37040000     1.59380000
C      -3.99160000     1.47970000     2.42230000
C      -5.45870000     1.45660000     2.83510000
H      -3.36910000     4.21140000    -0.61310000
H      -2.21250000     4.67900000    -1.92100000
H      -1.61230000     4.38910000    -0.24040000
H      -1.13870000     2.48430000    -1.82440000
H      -2.87750000     2.26580000    -2.09650000
H      -3.61980000    -0.28920000    -2.12860000
H      -5.89530000    -0.53900000    -0.00610000
H      -7.35160000    -2.39490000     0.58870000
H      -6.63330000    -4.72900000     0.20580000
H      -4.48730000    -5.20450000    -0.85990000
H      -1.29160000    -4.55200000    -2.69580000
H      -2.98630000    -5.17640000    -2.77330000
H      -2.04280000    -5.26620000    -1.21700000
H      -1.38060000    -0.76510000    -1.98490000
H       0.62510000    -1.75240000     1.08200000
H       0.74910000    -1.64510000    -2.02070000
H       2.01320000    -2.23280000    -0.89200000
H       0.48150000    -3.16010000    -1.06770000
H       3.39260000     3.51510000    -0.97030000
H       1.24070000     2.37270000    -0.95920000
H       8.19370000     3.78680000     0.52070000
H      10.11020000     2.77120000     1.67340000
H       9.99440000     0.43810000     2.48890000
H       7.94140000    -0.88910000     2.18320000
H       3.54130000    -1.51950000     2.07230000
H      -3.73960000     2.47350000     1.98340000
H      -3.37370000     1.38720000     3.33340000
H      -5.71510000     0.47710000     3.29700000
H      -5.65790000     2.26680000     3.57020000
H      -6.10890000     1.61160000     1.95040000
