30
6GGB-15thActive charge=0 mult=1 PIC50=5.499996932
C      -4.47720000     1.51670000     1.01690000
C      -3.26550000     0.78860000     0.51390000
C      -2.01250000     1.41090000     0.53170000
C      -0.86720000     0.72750000     0.08910000
C      -0.97790000    -0.60100000    -0.37840000
C      -2.23560000    -1.25410000    -0.31450000
C      -3.36470000    -0.54710000     0.11040000
O      -2.40100000    -2.60560000    -0.62630000
C       0.22440000    -1.23820000    -0.97520000
O       0.09020000    -2.10820000    -1.87660000
C       1.57630000    -0.71720000    -0.64530000
C       1.68310000     0.61140000    -0.17500000
C       0.45760000     1.39180000     0.11810000
O       0.54440000     2.61500000     0.41640000
C       2.95150000     1.18500000     0.01690000
C       4.10990000     0.44640000    -0.23920000
C       4.00830000    -0.87750000    -0.66450000
C       2.75810000    -1.47810000    -0.84360000
O       2.73670000    -2.83310000    -1.18220000
O       5.36910000     1.01590000    -0.06210000
H      -4.57300000     1.36180000     2.11190000
H      -5.39570000     1.14290000     0.51620000
H      -4.39370000     2.60510000     0.81050000
H      -1.93340000     2.43010000     0.89100000
H      -4.32240000    -1.05260000     0.14730000
H      -1.63170000    -3.25190000    -0.73530000
H       3.04510000     2.20570000     0.36670000
H       4.90940000    -1.45410000    -0.83360000
H       1.90870000    -3.40990000    -1.12640000
H       5.47880000     1.97390000     0.24940000
