26
6GGB-16thActive charge=0 mult=1 PIC50=5.499996932
C      -4.11230000     0.18410000    -0.04080000
C      -3.76410000     1.50280000    -0.33340000
C      -2.41950000     1.87520000    -0.39390000
C      -1.40650000     0.92540000    -0.16570000
C      -1.75880000    -0.40620000     0.13130000
C      -3.11730000    -0.76760000     0.19240000
C      -0.69830000    -1.40490000     0.38590000
O      -1.00990000    -2.57240000     0.75020000
C       0.72780000    -1.04140000     0.19850000
C       1.08780000     0.27730000    -0.17450000
C       0.02090000     1.31900000    -0.20900000
O       0.31710000     2.54380000    -0.19220000
C       2.45470000     0.56570000    -0.44850000
C       3.43280000    -0.41400000    -0.23010000
C       3.06720000    -1.69290000     0.19400000
C       1.72630000    -2.01150000     0.38500000
O       4.77440000    -0.10990000    -0.45760000
O       2.88180000     1.79010000    -0.97020000
H      -5.15530000    -0.10140000     0.00640000
H      -4.53750000     2.23860000    -0.51280000
H      -2.17250000     2.90440000    -0.62270000
H      -3.41070000    -1.78500000     0.41890000
H       3.82360000    -2.45120000     0.35270000
H       1.47120000    -3.02040000     0.68450000
H       5.50630000    -0.79640000    -0.31560000
H       2.27090000     2.44900000    -1.43120000
