26
6GGB-17thActive charge=0 mult=1 PIC50=5.199998172
C      -4.18360000     0.44050000     0.56790000
C      -4.05800000     0.36210000    -0.81910000
C      -2.79800000     0.20800000    -1.40110000
C      -1.64630000     0.13060000    -0.59640000
C      -1.77340000     0.21000000     0.80760000
C      -3.04970000     0.36520000     1.37950000
C      -0.56730000     0.12960000     1.66490000
O      -0.68080000     0.20050000     2.91970000
C       0.77190000    -0.03390000     1.05130000
C       0.89930000    -0.11330000    -0.35200000
C      -0.30710000    -0.03290000    -1.20960000
O      -0.19390000    -0.10380000    -2.46450000
C       2.17530000    -0.26860000    -0.92450000
C       3.31580000    -0.34460000    -0.11450000
C       3.18320000    -0.26530000     1.27610000
C       1.92260000    -0.11120000     1.85580000
N       4.60880000    -0.50240000    -0.70510000
H      -5.16180000     0.56000000     1.01560000
H      -4.93910000     0.42090000    -1.44510000
H      -2.72560000     0.14960000    -2.47990000
H      -3.17200000     0.42840000     2.45350000
H       2.28760000    -0.33090000    -2.00000000
H       4.05780000    -0.32290000     1.91180000
H       1.84910000    -0.05270000     2.93450000
H       4.71980000    -0.56280000    -1.74190000
H       5.46510000    -0.56010000    -0.10990000
