28
6GGB-18thActive charge=0 mult=1 PIC50=5.099999035
C       2.21920000    -1.27190000     1.28060000
C       3.52770000    -0.89800000     1.00010000
C       3.79480000     0.18440000     0.15860000
C       2.72370000     0.91420000    -0.40590000
C       1.37950000     0.55060000    -0.10150000
C       1.13880000    -0.56370000     0.73350000
C      -0.24840000    -0.99110000     1.04020000
O      -0.43650000    -1.83850000     1.95430000
C      -1.40150000    -0.40110000     0.30210000
C      -1.16520000     0.74300000    -0.49270000
C       0.20220000     1.30420000    -0.61990000
O       0.34780000     2.44010000    -1.14650000
C      -2.23180000     1.35710000    -1.16630000
C      -3.51980000     0.84470000    -1.07160000
C      -3.77790000    -0.29910000    -0.31260000
C      -2.72040000    -0.93700000     0.37530000
Cl     -3.06840000    -2.42410000     1.26960000
N      -5.12210000    -0.79870000    -0.25700000
Cl      3.09630000     2.23470000    -1.52380000
N       5.16270000     0.52330000    -0.11270000
H       2.05400000    -2.12600000     1.92570000
H       4.34200000    -1.46350000     1.43600000
H      -2.07030000     2.23690000    -1.77680000
H      -4.32370000     1.33920000    -1.60290000
H      -5.38790000    -1.63480000     0.30650000
H      -5.88660000    -0.31900000    -0.78300000
H       5.43270000     1.33090000    -0.71450000
H       5.93910000    -0.03690000     0.30510000
