26
6GGB-19thActive charge=0 mult=1 PIC50=5.0
C       3.11350000     1.96680000     1.10600000
C       2.30300000     0.98260000     1.66730000
C       1.20490000     0.46850000     0.95440000
C       0.92090000     0.95410000    -0.34280000
C       1.75390000     1.95550000    -0.90160000
C       2.84160000     2.45100000    -0.17060000
O       1.50790000     2.46130000    -2.17840000
C      -0.24490000     0.40250000    -1.08930000
O      -0.50510000     0.83000000    -2.24650000
C      -1.10580000    -0.65010000    -0.47990000
C      -0.80640000    -1.12350000     0.81830000
C       0.35120000    -0.57710000     1.56180000
O       0.61160000    -1.00520000     2.72040000
C      -1.61280000    -2.11690000     1.40240000
C      -2.70470000    -2.63860000     0.71240000
C      -3.00730000    -2.17870000    -0.56630000
C      -2.21970000    -1.18990000    -1.17040000
O      -2.54920000    -0.75010000    -2.45290000
H       3.95610000     2.35570000     1.66310000
H       2.53680000     0.62370000     2.66180000
H       3.47980000     3.21590000    -0.59460000
H       2.09460000     3.17720000    -2.59110000
H      -1.39980000    -2.49240000     2.39550000
H      -3.31900000    -3.40290000     1.17100000
H      -3.85880000    -2.59310000    -1.09110000
H      -3.34240000    -1.12650000    -2.95890000
