28
6GGB-1stActive charge=0 mult=1 PIC50=5.0
C       4.07280000    -0.39880000     0.42610000
C       3.94590000     0.98390000     0.56790000
C       2.71740000     1.60280000     0.32440000
C       1.60040000     0.83740000    -0.05600000
C       1.72830000    -0.55510000    -0.19880000
C       2.97180000    -1.16730000     0.04050000
C       0.56220000    -1.35010000    -0.63570000
O       0.75030000    -2.50100000    -1.11450000
C      -0.80720000    -0.75790000    -0.58060000
C      -1.97630000    -1.55650000    -0.70830000
C      -3.22820000    -0.94100000    -0.79050000
C      -3.35460000     0.43460000    -0.64950000
C      -2.23280000     1.23630000    -0.42200000
C      -0.93670000     0.65250000    -0.43610000
C       0.30230000     1.48050000    -0.34560000
O       0.27100000     2.71890000    -0.57940000
N      -2.44600000     2.62330000    -0.12540000
N      -1.93050000    -2.99010000    -0.70080000
H       5.02640000    -0.87580000     0.61270000
H       4.80110000     1.57740000     0.86420000
H       2.63950000     2.67700000     0.43730000
H       3.09090000    -2.23830000    -0.06650000
H      -4.12260000    -1.54010000    -0.90980000
H      -4.34440000     0.87410000    -0.66240000
H      -1.79320000     3.15860000     0.48670000
H      -3.36730000     3.07020000    -0.33190000
H      -2.75980000    -3.54490000    -1.01000000
H      -1.18070000    -3.51090000    -0.19700000
