29
6GGB-20thActive charge=0 mult=1 PIC50=5.0
C       4.09710000     1.25940000     1.05320000
C       2.77100000     1.66490000     1.17820000
C       1.73930000     0.92710000     0.57210000
C       2.05030000    -0.22930000    -0.18260000
C       3.40080000    -0.67360000    -0.23510000
C       4.40820000     0.09550000     0.35600000
O       3.78320000    -1.88030000    -0.82570000
C       0.95360000    -0.89630000    -0.93810000
O       1.22220000    -1.63920000    -1.91970000
C      -0.46650000    -0.59870000    -0.61290000
C      -0.76720000     0.51870000     0.19310000
C       0.32970000     1.35470000     0.73250000
O       0.06210000     2.42460000     1.34620000
C      -2.10700000     0.83550000     0.47840000
C      -3.15480000     0.04960000    -0.02280000
C      -2.85010000    -1.06600000    -0.81610000
C      -1.52110000    -1.39530000    -1.11200000
O      -1.25400000    -2.52010000    -1.89340000
C      -4.56130000     0.39360000     0.28630000
O      -5.50510000    -0.31240000    -0.16180000
O      -4.85640000     1.50200000     1.07610000
H       4.88520000     1.83710000     1.51890000
H       2.55310000     2.55850000     1.74970000
H       5.43940000    -0.22990000     0.29900000
H       3.13910000    -2.62750000    -1.04340000
H      -2.33350000     1.69530000     1.09680000
H      -3.64510000    -1.68830000    -1.20830000
H      -1.99660000    -3.10560000    -2.25780000
H      -5.81540000     1.74580000     1.29320000
