37
6GGB-21stActive charge=0 mult=1 PIC50=4.949999402
C      -2.69800000    -0.60760000     1.45610000
C      -3.64910000     0.59260000     1.48760000
O      -4.49780000     0.59180000     0.35470000
C      -3.72990000     0.77990000    -0.81940000
C      -2.78560000    -0.40440000    -1.04780000
N      -2.00870000    -0.65660000     0.16620000
C      -0.78650000    -1.39940000     0.06320000
C      -0.85820000    -2.79410000    -0.04780000
C       0.30150000    -3.55620000    -0.15020000
C       1.54810000    -2.93580000    -0.14320000
C       1.65100000    -1.53760000    -0.03310000
C       0.47720000    -0.75180000     0.07180000
C       0.60650000     0.73000000     0.18770000
O      -0.41970000     1.45650000     0.28250000
C       1.94430000     1.36830000     0.19300000
C       2.06940000     2.76650000     0.30240000
C       3.33040000     3.36630000     0.30720000
C       4.47840000     2.58160000     0.20340000
C       4.37020000     1.19390000     0.09430000
C       3.10570000     0.57590000     0.08810000
C       2.98660000    -0.89390000    -0.02730000
O       4.02730000    -1.60180000    -0.12110000
H      -3.27730000    -1.54550000     1.59920000
H      -1.96040000    -0.51250000     2.28290000
H      -4.27760000     0.52460000     2.40040000
H      -3.07380000     1.54400000     1.55820000
H      -3.15550000     1.73350000    -0.77560000
H      -4.42060000     0.85620000    -1.68540000
H      -3.37880000    -1.31020000    -1.29950000
H      -2.10680000    -0.17320000    -1.89770000
H      -1.82150000    -3.28890000    -0.05440000
H       0.23410000    -4.63320000    -0.23540000
H       2.43400000    -3.55310000    -0.22430000
H       1.19330000     3.39750000     0.38420000
H       3.41720000     4.44190000     0.39170000
H       5.45460000     3.04930000     0.20750000
H       5.27570000     0.60540000     0.01490000
