36
6GGB-22ndActive charge=0 mult=1 PIC50=4.949999402
C      -3.91190000    -0.55620000     1.55900000
C      -3.30180000     0.13650000     0.32080000
C      -3.49920000     1.66210000     0.49290000
C      -4.07800000    -0.29540000    -0.94260000
C      -1.82000000    -0.27340000     0.17970000
C      -0.75930000     0.66220000     0.20680000
C       0.58130000     0.25330000     0.07520000
C       0.88050000    -1.11280000    -0.08710000
C      -0.16420000    -2.04670000    -0.11510000
C      -1.48970000    -1.63460000     0.01590000
C       2.28890000    -1.55400000    -0.22660000
O       2.55410000    -2.77920000    -0.37190000
C       3.38620000    -0.55930000    -0.19570000
C       4.72680000    -0.96630000    -0.32720000
C       5.75740000    -0.02460000    -0.29740000
C       5.46380000     1.32950000    -0.13680000
C       4.13810000     1.74820000    -0.00510000
C       3.08880000     0.81090000    -0.03320000
C       1.68040000     1.25010000     0.10610000
O       1.41670000     2.47560000     0.25140000
H      -3.33750000    -0.28980000     2.47260000
H      -4.96810000    -0.24210000     1.70640000
H      -3.90660000    -1.66110000     1.45370000
H      -4.57830000     1.91160000     0.59060000
H      -3.10930000     2.21440000    -0.38940000
H      -2.98980000     2.02680000     1.41110000
H      -5.14000000     0.02770000    -0.88300000
H      -4.07400000    -1.39820000    -1.06810000
H      -3.62440000     0.16070000    -1.84910000
H      -0.95700000     1.71590000     0.32980000
H       0.04160000    -3.10270000    -0.23880000
H      -2.26010000    -2.39300000    -0.01200000
H       4.97900000    -2.01180000    -0.45290000
H       6.78610000    -0.34560000    -0.39920000
H       6.26510000     2.05680000    -0.11410000
H       3.93480000     2.80450000     0.11850000
