29
6GGB-23rdActive charge=0 mult=1 PIC50=4.899998417
C      -4.42900000    -0.06740000    -0.14440000
C      -2.96060000    -0.27270000    -0.41050000
C      -1.97340000     0.39940000     0.35020000
C      -0.59470000     0.19290000     0.05550000
C      -0.23180000    -0.75970000    -0.92650000
C      -1.22850000    -1.42440000    -1.65470000
C      -2.57310000    -1.16890000    -1.41320000
C       1.19690000    -1.06440000    -1.18680000
O       1.51250000    -1.89320000    -2.08490000
C       2.25430000    -0.41030000    -0.38680000
C       3.60530000    -0.76860000    -0.54970000
C       4.59850000    -0.13990000     0.20420000
C       4.25610000     0.85170000     1.12370000
C       2.91920000     1.21850000     1.29270000
C       1.90770000     0.59010000     0.54250000
C       0.49010000     0.98760000     0.70500000
O       0.22120000     2.04410000     1.33830000
N      -2.37540000     1.23150000     1.45050000
H      -4.70520000     0.98600000    -0.36020000
H      -5.05980000    -0.72410000    -0.78080000
H      -4.65770000    -0.30230000     0.91650000
H      -0.96880000    -2.14580000    -2.41950000
H      -3.31660000    -1.69530000    -1.99930000
H       3.89430000    -1.53480000    -1.25820000
H       5.63550000    -0.42150000     0.07460000
H       5.02800000     1.33800000     1.70610000
H       2.67700000     1.99050000     2.01230000
H      -1.80890000     1.27470000     2.32550000
H      -3.31310000     1.68820000     1.47780000
