31
6GGB-24thActive charge=0 mult=1 PIC50=4.899998417
C       6.04940000    -0.17870000     0.18340000
C       4.64290000     0.08510000     0.61240000
O       4.42040000     0.48570000     1.78680000
N       3.55700000    -0.20840000    -0.28010000
C       2.19050000     0.17120000    -0.04070000
C       1.15700000    -0.65000000    -0.51230000
C      -0.19090000    -0.29920000    -0.31450000
C      -0.50530000     0.90260000     0.35340000
C       0.53370000     1.73490000     0.80340000
C       1.86770000     1.37630000     0.60260000
C      -1.92200000     1.28240000     0.56710000
O      -2.20260000     2.35770000     1.16490000
C      -3.00960000     0.40150000     0.08030000
C      -4.35800000     0.75180000     0.27810000
C      -5.37970000    -0.08130000    -0.18250000
C      -5.06930000    -1.26970000    -0.84370000
C      -3.73570000    -1.63050000    -1.04740000
C      -2.69530000    -0.80130000    -0.58900000
C      -1.27870000    -1.18020000    -0.80270000
O      -0.99810000    -2.25500000    -1.40140000
H       6.75850000     0.41850000     0.79510000
H       6.27780000    -1.25740000     0.30940000
H       6.17810000     0.10030000    -0.88340000
H       3.76270000    -0.80590000    -1.11290000
H       1.41050000    -1.56980000    -1.02520000
H       0.31590000     2.66990000     1.30430000
H       2.64400000     2.05550000     0.92840000
H      -4.62340000     1.66910000     0.78850000
H      -6.41440000     0.19530000    -0.02640000
H      -5.86370000    -1.91300000    -1.19940000
H      -3.51940000    -2.55770000    -1.56320000
