30
6GGB-25thActive charge=0 mult=1 PIC50=4.899998417
C       4.62730000    -0.36930000    -0.94620000
C       3.98920000    -0.72790000     0.39170000
C       2.59360000    -0.17060000     0.48300000
C       1.50280000    -0.91300000     0.00680000
C       0.19900000    -0.38710000     0.05930000
C      -0.00910000     0.90440000     0.58820000
C       1.09070000     1.64790000     1.05080000
C       2.38000000     1.11640000     0.99370000
C      -1.37850000     1.46820000     0.64780000
O      -1.56430000     2.62280000     1.12200000
C      -2.53010000     0.67870000     0.15160000
C      -3.83450000     1.20400000     0.20330000
C      -4.91680000     0.45660000    -0.26570000
C      -4.71130000    -0.81950000    -0.79010000
C      -3.42260000    -1.35420000    -0.84790000
C      -2.32210000    -0.61310000    -0.37920000
C      -0.95280000    -1.17650000    -0.43830000
O      -0.76730000    -2.33090000    -0.91320000
H       5.65420000    -0.78880000    -0.99290000
H       4.03160000    -0.79260000    -1.78320000
H       4.68800000     0.73420000    -1.06070000
H       3.96740000    -1.83400000     0.50280000
H       4.61700000    -0.32600000     1.21660000
H       1.67510000    -1.90000000    -0.40560000
H       0.95550000     2.64340000     1.45470000
H       3.21400000     1.71010000     1.34750000
H      -4.01860000     2.19220000     0.60590000
H      -5.91700000     0.86790000    -0.22250000
H      -5.55250000    -1.39610000    -1.15280000
H      -3.28790000    -2.34680000    -1.25920000
