29
6GGB-2ndActive charge=0 mult=1 PIC50=4.849999245
C       4.42590000    -0.16120000    -0.08680000
C       2.98250000     0.23660000    -0.24890000
C       1.93800000    -0.61270000     0.18250000
C       0.58250000    -0.21280000     0.01560000
C       0.30110000     1.05140000    -0.55520000
C       1.35430000     1.87190000    -0.98650000
C       2.67610000     1.46380000    -0.84610000
C      -1.10020000     1.51560000    -0.70130000
O      -1.34110000     2.63740000    -1.22720000
C      -2.21800000     0.67280000    -0.22610000
C      -3.54650000     1.13020000    -0.30720000
C      -4.59860000     0.32820000     0.13940000
C      -4.33830000    -0.93550000     0.66870000
C      -3.02490000    -1.40220000     0.75350000
C      -1.95370000    -0.60380000     0.30900000
C      -0.55940000    -1.10010000     0.38930000
O      -0.35510000    -2.29280000     0.74370000
N       2.26280000    -1.85110000     0.82720000
O       2.86310000    -2.74820000     0.20080000
O       2.02870000    -2.00400000     2.17400000
H       5.10740000     0.70030000    -0.25300000
H       4.60730000    -0.53910000     0.94150000
H       4.67790000    -0.95470000    -0.82090000
H       1.15700000     2.83710000    -1.43620000
H       3.46570000     2.11970000    -1.19210000
H      -3.77270000     2.10760000    -0.71470000
H      -5.61760000     0.68730000     0.07440000
H      -5.15570000    -1.55530000     1.01390000
H      -2.84830000    -2.38650000     1.16860000
