66
6GGB-3rdActive charge=0 mult=1 PIC50=4.800000875
C      -2.20840000     1.51030000    -1.20430000
C      -2.24720000     2.77750000    -1.79020000
C      -2.27160000     3.91860000    -0.98530000
C      -2.26000000     3.79450000     0.40590000
C      -2.22640000     2.52970000     0.99900000
F      -2.24380000     2.44680000     2.35410000
C      -2.20360000     1.36720000     0.19840000
C      -2.23790000    -0.01220000     0.83200000
P      -3.77670000    -0.88350000     0.36180000
O      -4.03730000    -2.00950000     1.34200000
O      -3.54950000    -1.53670000    -1.19930000
C      -4.76090000    -2.11180000    -1.62560000
C      -4.52550000    -2.83090000    -2.94330000
O      -5.07930000     0.22100000     0.33450000
C      -5.46400000     0.50730000     1.65770000
C      -6.48960000     1.63030000     1.64470000
N      -1.07950000    -0.80440000     0.41370000
C      -0.67060000    -1.99010000     1.11540000
O      -0.99050000    -2.15750000     2.32340000
C       0.07230000    -3.07730000     0.38900000
C      -0.89310000    -3.84300000    -0.51250000
O       1.10480000    -2.50730000    -0.41810000
C       2.27510000    -1.90980000     0.07540000
C       2.82170000    -0.83530000    -0.63840000
O       2.07770000    -0.34600000    -1.71830000
C       2.90050000    -2.35970000     1.24700000
C       4.07060000    -1.75450000     1.69790000
C       4.65870000    -0.70630000     0.97460000
C       4.05750000    -0.25740000    -0.22750000
C       5.91210000    -0.08420000     1.46900000
O       6.45790000    -0.51460000     2.52240000
C       6.52180000     1.04400000     0.73300000
C       5.95900000     1.46710000    -0.48860000
C       4.78000000     0.76070000    -1.04520000
O       4.44790000     0.97810000    -2.24330000
C       6.54450000     2.54190000    -1.18440000
C       7.68250000     3.17600000    -0.67870000
C       8.24630000     2.74780000     0.52370000
C       7.67000000     1.69000000     1.23010000
H      -2.21750000     0.63720000    -1.84740000
H      -2.28030000     2.87730000    -2.86980000
H      -2.31740000     4.89780000    -1.43990000
H      -2.29830000     4.67900000     1.02650000
H      -2.22850000     0.07920000     1.93900000
H      -5.13980000    -2.85820000    -0.89090000
H      -5.52690000    -1.32210000    -1.79170000
H      -4.15330000    -2.11500000    -3.70910000
H      -3.77350000    -3.63690000    -2.80310000
H      -5.47670000    -3.28140000    -3.29980000
H      -5.93250000    -0.38730000     2.12570000
H      -4.59840000     0.84660000     2.27350000
H      -6.04470000     2.54510000     1.20090000
H      -7.37550000     1.32990000     1.04400000
H      -6.81400000     1.85060000     2.68420000
H      -0.68430000    -0.64960000    -0.54080000
H       0.49440000    -3.80230000     1.11340000
H      -1.29640000    -3.17900000    -1.30820000
H      -1.73580000    -4.25080000     0.08380000
H      -0.36210000    -4.68730000    -0.99820000
H       2.16980000     0.59430000    -2.07830000
H       2.50150000    -3.19070000     1.81080000
H       4.53160000    -2.12660000     2.60600000
H       6.12750000     2.89190000    -2.12120000
H       8.12960000     3.99890000    -1.22230000
H       9.13220000     3.23680000     0.90910000
H       8.12360000     1.37470000     2.16210000
