60
6GGB-4thActive charge=0 mult=1 PIC50=4.700000504
C       0.31900000     0.62420000    -0.46340000
C      -1.04380000     0.62610000    -0.18430000
C      -1.65800000    -0.47910000     0.42340000
C      -0.85760000    -1.58550000     0.80460000
C       0.53230000    -1.58230000     0.53210000
C       1.12170000    -0.48200000    -0.14290000
N       2.50290000    -0.51570000    -0.56020000
C       3.27940000     0.69450000    -0.84230000
C       4.75990000     0.36190000    -1.06410000
N       5.51280000     1.56280000    -1.45410000
C       5.79770000     2.45390000    -0.31490000
C       5.12720000     3.80600000    -0.54390000
O       5.36800000     4.65530000     0.54480000
C       1.33890000    -2.72830000     1.02880000
O       2.52420000    -2.54640000     1.41290000
C       0.67950000    -4.04320000     1.23480000
C       1.40150000    -5.26280000     1.23660000
C       0.74430000    -6.45190000     1.55580000
C      -0.62680000    -6.46590000     1.78990000
C      -1.37260000    -5.28890000     1.71810000
C      -0.71380000    -4.05500000     1.48480000
C      -1.42140000    -2.74970000     1.53940000
O      -2.41120000    -2.59700000     2.30420000
O      -2.75870000    -5.39430000     1.85240000
O       2.75470000    -5.34040000     0.89970000
N      -3.09160000    -0.51180000     0.58530000
C      -3.92790000     0.68240000     0.70440000
C      -4.56770000     1.01390000    -0.64690000
N      -5.38380000     2.23280000    -0.54700000
C      -4.58330000     3.43440000    -0.81940000
C      -5.42020000     4.68660000    -0.57270000
O      -4.63930000     5.82480000    -0.80600000
H       0.73090000     1.48300000    -0.97390000
H      -1.62320000     1.48480000    -0.49380000
H       2.96650000    -1.44130000    -0.69910000
H       2.88360000     1.18160000    -1.75920000
H       3.17790000     1.39440000     0.01420000
H       4.82900000    -0.38370000    -1.88760000
H       5.19690000    -0.10880000    -0.15420000
H       6.42480000     1.24610000    -1.86120000
H       5.44830000     2.03530000     0.65650000
H       6.89570000     2.61440000    -0.22230000
H       4.03080000     3.66380000    -0.64410000
H       5.49850000     4.26190000    -1.49140000
H       6.24920000     5.08450000     0.38070000
H       1.29630000    -7.38170000     1.58190000
H      -1.12220000    -7.40710000     1.99310000
H      -3.40090000    -4.63770000     1.65740000
H       3.26500000    -4.58550000     0.46320000
H      -3.58950000    -1.42530000     0.49410000
H      -3.33250000     1.53510000     1.09100000
H      -4.73150000     0.48610000     1.44670000
H      -5.22160000     0.15950000    -0.93370000
H      -3.79140000     1.10450000    -1.43990000
H      -6.12340000     2.17560000    -1.28750000
H      -4.23110000     3.43280000    -1.87640000
H      -3.69610000     3.46920000    -0.14950000
H      -6.29770000     4.68710000    -1.25780000
H      -5.78020000     4.68880000     0.48050000
H      -5.23830000     6.60340000    -0.66360000
