25
6GGB-5thActive charge=0 mult=1 PIC50=4.700000504
C       3.87600000     0.77030000    -0.78490000
C       3.99580000    -0.37970000    -0.00450000
C       2.85430000    -1.00590000     0.50040000
C       1.57610000    -0.48450000     0.22770000
C       1.45490000     0.67960000    -0.56230000
C       2.61420000     1.29940000    -1.06410000
C       0.11380000     1.23760000    -0.85600000
O       0.00540000     2.27790000    -1.56200000
C      -1.10030000     0.57620000    -0.32210000
C      -0.97930000    -0.58760000     0.46770000
C       0.36200000    -1.14570000     0.76150000
O       0.47050000    -2.18610000     1.46750000
C      -2.13830000    -1.20770000     0.96970000
C      -3.40290000    -0.68100000     0.69240000
C      -3.51990000     0.47230000    -0.09050000
C      -2.37790000     1.09750000    -0.59480000
O      -4.53650000    -1.31190000     1.20000000
H       4.76290000     1.25300000    -1.17470000
H       4.97540000    -0.78710000     0.20990000
H       2.97230000    -1.89730000     1.10370000
H       2.54630000     2.19280000    -1.67210000
H      -2.06590000    -2.10120000     1.57740000
H      -4.49630000     0.88560000    -0.30920000
H      -2.49530000     1.98890000    -1.19820000
H      -5.46750000    -0.95560000     1.01750000
