28
6GGB-6thActive charge=0 mult=1 PIC50=4.550000452
C       2.16190000     1.87470000    -0.22410000
C       3.43950000     1.33360000    -0.09730000
C       3.61520000    -0.04700000     0.00740000
C       2.50120000    -0.90580000    -0.02820000
C       1.20330000    -0.36290000    -0.21460000
C       1.03850000     1.03580000    -0.27420000
C      -0.32050000     1.60610000    -0.41210000
O      -0.45730000     2.78160000    -0.84580000
C      -1.50760000     0.75790000    -0.10960000
C      -2.79230000     1.30670000     0.14640000
C      -3.89080000     0.45820000     0.29020000
C      -3.72760000    -0.92270000     0.28410000
C      -2.46180000    -1.48850000     0.13270000
C      -1.34270000    -0.65250000    -0.11290000
C       0.00190000    -1.20660000    -0.42350000
O       0.11020000    -2.32060000    -1.00240000
O      -2.35720000    -2.87520000     0.26540000
O      -3.02060000     2.67640000     0.29920000
O       2.71360000    -2.27470000     0.15740000
O       4.90810000    -0.54880000     0.15920000
H       2.05180000     2.95060000    -0.28100000
H       4.29840000     1.99200000    -0.06370000
H      -4.87580000     0.87520000     0.45930000
H      -4.58760000    -1.56020000     0.44720000
H      -1.48000000    -3.36100000     0.39090000
H      -2.29010000     3.35300000     0.46920000
H       1.97070000    -2.93500000     0.34130000
H       5.09770000    -1.54050000     0.23950000
