29
6GGB-7thActive charge=0 mult=1 PIC50=4.550000452
C      -3.99640000    -1.51700000     0.20330000
N      -2.70370000    -1.17630000    -0.38120000
C      -2.07680000     0.10320000    -0.18020000
C      -2.86350000     1.26650000    -0.23240000
C      -2.27830000     2.52630000    -0.15320000
C      -0.89790000     2.65050000    -0.03760000
C      -0.08150000     1.50940000     0.03040000
C      -0.66820000     0.21980000    -0.00570000
C       0.21230000    -0.96800000     0.19910000
O      -0.28430000    -2.09880000     0.45300000
C       1.68610000    -0.81830000     0.18070000
C       2.52180000    -1.95050000     0.21100000
C       3.91060000    -1.80480000     0.20850000
C       4.48020000    -0.53190000     0.17980000
C       3.66330000     0.60030000     0.15320000
C       2.26230000     0.46740000     0.15270000
C       1.39050000     1.66160000     0.13230000
O       1.90320000     2.81340000     0.19100000
H      -4.80550000    -0.94180000    -0.29150000
H      -4.19950000    -2.59920000     0.05940000
H      -3.98820000    -1.29720000     1.29170000
H      -2.21980000    -1.90340000    -0.95380000
H      -3.93430000     1.20450000    -0.36930000
H      -2.89720000     3.41300000    -0.20580000
H      -0.46840000     3.64400000    -0.00200000
H       2.10240000    -2.94860000     0.23320000
H       4.54630000    -2.68060000     0.22970000
H       5.55700000    -0.42180000     0.17880000
H       4.12750000     1.57830000     0.13200000
