72
6GGB-8thActive charge=0 mult=1 PIC50=4.550000452
C      -7.31560000     0.02110000     1.95780000
C      -6.26150000     0.95280000     1.37870000
O      -5.04580000     0.25000000     1.25850000
P      -3.88100000     1.30470000     0.59770000
O      -3.66040000     2.47000000     1.54350000
C      -2.30390000     0.40440000     0.41910000
C      -2.47400000    -0.75420000    -0.56650000
C      -2.23700000    -0.52920000    -1.94190000
C      -2.39980000    -1.54350000    -2.88160000
C      -2.82360000    -2.80640000    -2.48690000
C      -3.11220000    -3.06460000    -1.14310000
C      -3.57450000    -4.33740000    -0.77160000
C      -3.89900000    -4.60770000     0.55580000
C      -3.76470000    -3.61480000     1.52370000
C      -3.29570000    -2.34530000     1.17600000
C      -2.95140000    -2.04110000    -0.16330000
N      -1.26020000     1.34520000    -0.01090000
C      -0.01390000     1.51140000     0.68100000
O       0.25330000     0.80900000     1.69360000
C       0.94270000     2.58820000     0.24130000
C       0.46390000     3.93910000     0.76510000
O       2.25810000     2.34330000     0.74450000
C       3.12840000     1.32640000     0.31600000
C       4.39470000     1.22600000     0.92210000
C       5.30340000     0.21500000     0.51950000
C       4.92620000    -0.69040000    -0.49860000
C       3.66050000    -0.57640000    -1.09490000
C       2.77140000     0.41780000    -0.69260000
C       5.85970000    -1.75810000    -0.93430000
O       5.50190000    -2.58550000    -1.81740000
C       7.20740000    -1.86260000    -0.33100000
C       8.11480000    -2.84720000    -0.76580000
C       9.38410000    -2.94320000    -0.19010000
C       9.76250000    -2.06030000     0.82220000
C       8.87360000    -1.07590000     1.26020000
C       7.59160000    -0.96590000     0.68750000
C       6.64820000     0.08110000     1.14970000
O       6.99430000     0.85610000     2.08610000
O       4.75210000     2.13160000     1.92510000
O      -4.38600000     1.80580000    -0.95800000
C      -4.38060000     3.21320000    -1.02310000
C      -4.71460000     3.64170000    -2.44200000
H      -7.47490000    -0.84480000     1.27900000
H      -6.98660000    -0.35110000     2.95040000
H      -8.27550000     0.56910000     2.07750000
H      -6.15210000     1.82070000     2.07050000
H      -6.62160000     1.30360000     0.38360000
H      -2.02710000     0.02270000     1.41880000
H      -1.92320000     0.43810000    -2.30870000
H      -2.19570000    -1.34550000    -3.92790000
H      -2.94430000    -3.57770000    -3.24050000
H      -3.69290000    -5.12150000    -1.51200000
H      -4.25880000    -5.58970000     0.83600000
H      -4.02980000    -3.82890000     2.55230000
H      -3.23750000    -1.61930000     1.97340000
H      -1.46110000     1.99460000    -0.80540000
H       0.97090000     2.63990000    -0.86740000
H       0.38210000     3.91770000     1.87430000
H       1.18850000     4.73240000     0.47470000
H      -0.53140000     4.18970000     0.33390000
H       3.35560000    -1.25740000    -1.88060000
H       1.80690000     0.46750000    -1.17790000
H       7.84700000    -3.54160000    -1.55240000
H      10.07450000    -3.70380000    -0.53250000
H      10.74910000    -2.13470000     1.26470000
H       9.19020000    -0.39910000     2.04530000
H       4.12930000     2.86420000     2.24850000
H      -3.37990000     3.62740000    -0.76700000
H      -5.15270000     3.63420000    -0.34120000
H      -3.91620000     3.30210000    -3.13380000
H      -5.68050000     3.19820000    -2.75630000
H      -4.78960000     4.74870000    -2.49080000
