30
6GGB-9thActive charge=0 mult=1 PIC50=4.096910013
C      -4.26530000     0.09590000     1.27390000
C      -3.14860000    -0.73730000     1.27720000
C      -1.98710000    -0.37310000     0.57500000
C      -1.95600000     0.84020000    -0.15030000
C      -3.07740000     1.70960000    -0.09300000
C      -4.22740000     1.31310000     0.59720000
O      -3.07920000     2.98040000    -0.67280000
C      -0.76790000     1.12100000    -0.99720000
O      -0.89190000     1.81470000    -2.04160000
C       0.51830000     0.43190000    -0.71600000
C       0.48230000    -0.78090000     0.00780000
C      -0.79430000    -1.25210000     0.59580000
O      -0.85880000    -2.39080000     1.13590000
C       1.65840000    -1.53160000     0.17380000
C       2.86950000    -1.08950000    -0.37030000
C       2.91670000     0.14090000    -1.03440000
C       1.76350000     0.91530000    -1.19400000
O       1.90620000     2.16740000    -1.79650000
C       4.12890000    -1.88600000    -0.16430000
O       4.79990000    -1.43780000     0.98120000
H      -5.15720000    -0.19380000     1.81450000
H      -3.19400000    -1.66710000     1.83040000
H      -5.09020000     1.96660000     0.62940000
H      -2.24480000     3.44470000    -1.00350000
H       1.63620000    -2.46280000     0.72730000
H       3.86140000     0.51460000    -1.41120000
H       1.19480000     2.88470000    -1.76930000
H       3.90090000    -2.97340000    -0.08130000
H       4.79940000    -1.76390000    -1.04160000
H       4.30370000    -1.80100000     1.76090000
