36
6N0D-Active_13th charge=0 mult=1 PIC50=5.11
C       3.76410000     1.33930000     0.84080000
C       4.02290000     1.26070000    -0.66390000
C       2.81590000     0.54820000    -1.26270000
N       2.12050000    -0.04630000    -0.13710000
C       2.72730000     0.26630000     1.14190000
C       1.12090000    -1.05980000    -0.29050000
C       1.54040000    -2.37870000    -0.50180000
C       0.60960000    -3.40320000    -0.64310000
C      -0.75270000    -3.12390000    -0.57280000
C      -1.20370000    -1.80850000    -0.36250000
C      -0.26520000    -0.75660000    -0.22240000
C      -0.76430000     0.63440000    -0.01500000
O       0.04380000     1.59770000     0.07930000
C      -2.21930000     0.90410000     0.07450000
C      -2.69240000     2.21250000     0.29070000
C      -4.06320000     2.46520000     0.37300000
C      -4.97630000     1.41960000     0.24070000
C      -4.52220000     0.11690000     0.02560000
C      -3.14330000    -0.15230000    -0.05910000
C      -2.65810000    -1.53060000    -0.28760000
O      -3.48700000    -2.47350000    -0.41770000
H       3.34750000     2.33940000     1.09250000
H       4.69750000     1.17520000     1.42180000
H       4.15350000     2.27330000    -1.10350000
H       4.94090000     0.66110000    -0.85090000
H       2.14570000     1.27120000    -1.77520000
H       3.14110000    -0.23690000    -1.97990000
H       1.96230000     0.64200000     1.85500000
H       3.21610000    -0.64240000     1.55590000
H       2.59720000    -2.60970000    -0.55310000
H       0.94550000    -4.41940000    -0.80500000
H      -1.45490000    -3.94070000    -0.68320000
H      -2.00380000     3.04140000     0.39680000
H      -4.41800000     3.47420000     0.53970000
H      -6.03830000     1.61840000     0.30480000
H      -5.24990000    -0.67860000    -0.07400000
