30
6N0D-Active_15th charge=0 mult=1 PIC50=9.602
C      -3.43110000     0.34000000    -0.19660000
C      -3.17200000    -1.00600000     0.47640000
C      -1.92180000    -1.59190000    -0.09050000
N      -1.98940000    -2.66790000    -0.81240000
C      -0.68950000    -0.76950000    -0.02460000
C       0.58290000    -1.35550000     0.14450000
C       1.73790000    -0.56060000     0.05510000
C       3.01340000    -1.15560000     0.13790000
C       4.16630000    -0.38120000     0.03200000
C       4.06720000     0.99240000    -0.16130000
C       2.81530000     1.60470000    -0.23420000
C       1.62780000     0.84590000    -0.10850000
C       0.34190000     1.44770000    -0.13910000
C      -0.82250000     0.63720000    -0.11490000
C      -2.20660000     1.23150000    -0.16980000
N      -2.37420000     2.51300000    -0.27530000
O       0.18880000     2.83920000    -0.18260000
O       0.72140000    -2.71710000     0.43930000
H      -3.72710000     0.17360000    -1.25520000
H      -4.27860000     0.83740000     0.32360000
H      -3.04230000    -0.85920000     1.57070000
H      -4.04010000    -1.68210000     0.31490000
H      -1.16880000    -3.04960000    -1.33330000
H       3.12710000    -2.22410000     0.27310000
H       5.14040000    -0.84990000     0.08980000
H       4.96620000     1.58780000    -0.25860000
H       2.80960000     2.66770000    -0.41060000
H      -3.32130000     2.94820000    -0.34840000
H       0.93070000     3.51080000    -0.05340000
H      -0.05160000    -3.30690000     0.71880000
