54
6N0D-Active_19th charge=0 mult=1 PIC50=7.959
C      10.60030000    -0.74740000     0.18560000
O       9.75130000    -0.98070000     1.30370000
C       8.35790000    -1.11160000     1.22930000
C       7.65260000    -1.40170000     2.40500000
C       6.26660000    -1.57260000     2.37550000
C       5.55610000    -1.43040000     1.17560000
C       6.26120000    -1.13100000    -0.00430000
C       7.65060000    -0.97070000     0.02050000
C       4.09460000    -1.65860000     1.17580000
C       3.25640000    -1.00220000     0.36450000
C       1.80090000    -1.25760000     0.36490000
O       1.35270000    -2.30540000     0.91240000
C       0.85650000    -0.34150000    -0.31630000
C      -0.23940000    -0.88210000    -1.00980000
C      -1.16430000    -0.05290000    -1.65530000
C      -0.98830000     1.33850000    -1.61980000
C       0.09180000     1.88660000    -0.91710000
C       1.00700000     1.05800000    -0.25570000
O       2.04540000     1.62940000     0.47850000
O      -1.87860000     2.17580000    -2.29410000
C      -2.31400000    -0.65550000    -2.35930000
O      -2.09490000    -1.49880000    -3.26690000
C      -3.71480000    -0.32030000    -2.02570000
C      -4.06070000     0.26820000    -0.86890000
C      -5.45750000     0.58940000    -0.47890000
C      -5.66640000     1.49830000     0.57340000
C      -6.96140000     1.81210000     0.99640000
C      -8.07320000     1.21590000     0.39050000
C      -7.87210000     0.30400000    -0.66170000
C      -6.57820000    -0.00990000    -1.09000000
O      -9.35210000     1.54750000     0.86330000
C     -10.56190000     0.98010000     0.37520000
H      11.65010000    -0.69510000     0.53170000
H      10.33880000     0.21790000    -0.29990000
H      10.50820000    -1.58070000    -0.54190000
H       8.18490000    -1.51250000     3.34000000
H       5.74780000    -1.81450000     3.29340000
H       5.74750000    -1.05240000    -0.95390000
H       8.16620000    -0.75700000    -0.90840000
H       3.69550000    -2.35260000     1.90550000
H       3.64300000    -0.25450000    -0.31550000
H      -0.37500000    -1.95580000    -1.04810000
H       0.21780000     2.96150000    -0.88060000
H       2.14570000     2.63290000     0.57580000
H      -1.77850000     3.18390000    -2.27470000
H      -4.46770000    -0.60390000    -2.74840000
H      -3.28240000     0.54080000    -0.16700000
H      -4.82630000     1.96710000     1.07200000
H      -7.10330000     2.51460000     1.80830000
H      -8.70940000    -0.17460000    -1.15000000
H      -6.47060000    -0.74270000    -1.87780000
H     -10.54570000    -0.12380000     0.51030000
H     -11.41310000     1.39510000     0.95210000
H     -10.69740000     1.23340000    -0.69630000
