60
6N0D-Active_1st charge=0 mult=1 PIC50=9.097
C      -0.42370000    -0.27830000     2.12200000
C       0.96230000    -0.17080000     2.16940000
C       1.62470000     0.83810000     1.46620000
C       0.87630000     1.78720000     0.72990000
C      -0.53100000     1.66560000     0.66380000
C      -1.18770000     0.63020000     1.37490000
N      -2.62590000     0.54550000     1.39680000
C      -3.36120000    -0.72020000     1.38920000
C      -3.04710000    -1.52110000     0.12300000
N      -3.85880000    -2.74250000     0.08710000
C      -3.62040000    -3.47460000    -1.16260000
C      -4.52970000    -4.70230000    -1.24160000
O      -5.87860000    -4.32340000    -1.18760000
C      -1.27170000     2.60530000    -0.21370000
O      -2.31810000     2.22270000    -0.80330000
C      -0.68940000     3.93910000    -0.50720000
C      -1.48420000     5.03600000    -0.92750000
C      -0.86910000     6.22860000    -1.30910000
C       0.50840000     6.38430000    -1.19450000
C       1.30300000     5.35080000    -0.69670000
C       0.71510000     4.09490000    -0.39410000
C       1.52490000     2.90950000    -0.00110000
O       2.72800000     2.81640000    -0.36240000
O       2.65650000     5.62650000    -0.48800000
O      -2.88040000     4.99610000    -0.94960000
N       3.05060000     0.93030000     1.57270000
C       3.93930000     0.17340000     0.68950000
C       4.06830000    -1.28910000     1.13190000
N       2.88480000    -2.06600000     0.73080000
C       3.00700000    -2.63750000    -0.62150000
C       3.75390000    -3.97990000    -0.61930000
O       3.81890000    -4.49860000    -1.91960000
H      -0.89820000    -1.05930000     2.69930000
H       1.52480000    -0.86730000     2.77800000
H      -3.18510000     1.42800000     1.38920000
H      -3.11720000    -1.31210000     2.29580000
H      -4.45200000    -0.50540000     1.41670000
H      -3.27840000    -0.88470000    -0.76040000
H      -1.96440000    -1.78050000     0.10370000
H      -3.55050000    -3.35450000     0.87990000
H      -2.55930000    -3.80780000    -1.21860000
H      -3.83210000    -2.82120000    -2.03830000
H      -4.31280000    -5.38060000    -0.38910000
H      -4.32280000    -5.26370000    -2.18090000
H      -6.10410000    -3.94820000    -2.07870000
H      -1.47120000     7.06040000    -1.65290000
H       0.95840000     7.33560000    -1.45000000
H       3.26520000     5.05170000     0.07750000
H      -3.42750000     4.27630000    -0.49840000
H       3.44940000     1.73760000     2.10300000
H       4.94910000     0.63730000     0.71940000
H       3.57830000     0.23860000    -0.35890000
H       4.99940000    -1.72230000     0.70500000
H       4.18010000    -1.31930000     2.23870000
H       2.72550000    -2.83280000     1.42600000
H       3.51100000    -1.92650000    -1.31250000
H       1.98370000    -2.80500000    -1.02050000
H       4.77870000    -3.86310000    -0.20200000
H       3.20720000    -4.70580000     0.01920000
H       4.51960000    -3.98160000    -2.39670000
