36
6N0D-Active_22nd charge=0 mult=1 PIC50=8.091514981
C      -5.99710000    -0.03700000     0.14390000
O      -5.13100000     1.08320000     0.29440000
C      -3.73140000     1.02200000     0.21360000
C      -3.04030000    -0.17830000    -0.03150000
C      -1.63230000    -0.19590000    -0.10300000
C      -0.91150000     1.00310000     0.07960000
C      -1.61450000     2.20040000     0.31100000
C      -3.00780000     2.20370000     0.38090000
C       0.57010000     0.98470000    -0.01540000
C       1.36200000     1.84310000     0.64320000
C       2.83620000     1.80970000     0.54120000
O       3.46700000     2.88490000     0.72660000
C       3.59990000     0.57200000     0.25140000
C       4.77950000     0.63820000    -0.51110000
C       5.51730000    -0.52020000    -0.77460000
C       5.09240000    -1.75170000    -0.27030000
C       3.93230000    -1.82630000     0.50430000
C       3.19150000    -0.67090000     0.77100000
O      -0.92170000    -1.38540000    -0.34160000
C      -1.51870000    -2.66330000    -0.53590000
H      -5.87280000    -0.48310000    -0.86540000
H      -7.04800000     0.29980000     0.25610000
H      -5.78130000    -0.79450000     0.92680000
H      -3.59550000    -1.09440000    -0.16520000
H      -1.09500000     3.14360000     0.41250000
H      -3.53060000     3.13500000     0.55880000
H       1.02290000     0.21680000    -0.62990000
H       0.92960000     2.62640000     1.25120000
H       5.12280000     1.58400000    -0.91190000
H       6.41950000    -0.46260000    -1.36980000
H       5.66520000    -2.64700000    -0.47460000
H       3.61000000    -2.77910000     0.90390000
H       2.30860000    -0.74660000     1.39330000
H      -2.09730000    -2.95580000     0.36570000
H      -0.71960000    -3.41420000    -0.70320000
H      -2.18030000    -2.64440000    -1.42760000
