31
6N0D-Active_23rd charge=0 mult=1 PIC50=7.625251654
C       5.49580000     0.48300000    -1.03750000
C       5.44250000    -0.20670000     0.17530000
C       4.22150000    -0.36930000     0.83670000
C       3.03590000     0.14810000     0.28610000
C       3.10440000     0.85710000    -0.93150000
C       4.32890000     1.01700000    -1.58800000
C       1.76590000    -0.04010000     1.02970000
C       0.55360000     0.03130000     0.46140000
C      -0.69140000    -0.17550000     1.23220000
O      -0.63830000    -0.44560000     2.46340000
C      -2.00950000    -0.03570000     0.57430000
C      -3.05050000    -0.97530000     0.77590000
C      -4.31290000    -0.75750000     0.18930000
C      -4.53020000     0.37440000    -0.61400000
C      -3.49400000     1.28360000    -0.82960000
C      -2.24580000     1.08350000    -0.24120000
O      -5.76970000     0.61030000    -1.20840000
O      -5.35610000    -1.66330000     0.38970000
O      -2.85380000    -2.13980000     1.52380000
H       6.44220000     0.60950000    -1.54730000
H       6.34830000    -0.61520000     0.60450000
H       4.20100000    -0.90770000     1.77660000
H       2.22650000     1.31060000    -1.37000000
H       4.37410000     1.56280000    -2.52170000
H       1.83870000    -0.28770000     2.08260000
H       0.45960000     0.21150000    -0.60040000
H      -3.66040000     2.15650000    -1.44820000
H      -1.46870000     1.82060000    -0.40330000
H      -6.55520000    -0.01720000    -1.08520000
H      -5.25150000    -2.49390000     0.95990000
H      -1.95110000    -2.42940000     1.87590000
