47
6N0D-Active_25th charge=0 mult=1 PIC50=6.809948582
C       6.26380000     1.09580000    -1.03240000
C       5.08940000     0.75420000    -0.15200000
C       4.81560000    -0.54860000     0.07910000
C       3.68240000    -1.04750000     0.94420000
C       2.34030000    -0.89630000     0.25550000
C       2.08010000    -1.62100000    -0.92780000
C       0.83550000    -1.48340000    -1.56370000
C      -0.13770000    -0.63720000    -1.03960000
C       0.09850000     0.08500000     0.13810000
C       1.33670000    -0.06580000     0.80670000
O       1.58230000     0.57520000     2.02560000
C      -0.94190000     1.01960000     0.62170000
O      -0.61730000     2.19540000     0.94410000
C      -2.35500000     0.59050000     0.69580000
C      -3.33410000     1.42010000     1.08430000
C      -4.75980000     1.02150000     1.18310000
C      -5.29440000    -0.06780000     0.46470000
C      -6.64860000    -0.39640000     0.58260000
C      -7.48880000     0.36020000     1.40870000
C      -6.96950000     1.45020000     2.11190000
C      -5.61660000     1.78280000     1.99630000
O      -8.83880000     0.04010000     1.53380000
O       3.07700000    -2.46970000    -1.43920000
C       2.95110000    -3.24520000    -2.62670000
C       4.26220000     1.86520000     0.44840000
H       6.12110000     0.64700000    -2.03830000
H       6.38040000     2.19250000    -1.15640000
H       7.19770000     0.69430000    -0.58490000
H       5.45500000    -1.30430000    -0.37140000
H       3.84490000    -2.12770000     1.14880000
H       3.72050000    -0.54610000     1.93290000
H       0.61110000    -2.02150000    -2.47440000
H      -1.07580000    -0.53040000    -1.57100000
H       0.87710000     1.08480000     2.54100000
H      -2.57720000    -0.44000000     0.45580000
H      -3.07870000     2.43010000     1.38390000
H      -4.68320000    -0.65440000    -0.20680000
H      -7.04540000    -1.23530000     0.02500000
H      -7.61550000     2.04160000     2.74840000
H      -5.23580000     2.63220000     2.55050000
H      -9.24560000    -0.74300000     1.03570000
H       2.11330000    -3.96690000    -2.52460000
H       3.89020000    -3.81240000    -2.78950000
H       2.78150000    -2.58090000    -3.50030000
H       3.23420000     1.83700000     0.03410000
H       4.69120000     2.86170000     0.21530000
H       4.22670000     1.76500000     1.55310000
