39
6N0D-Active_26th charge=0 mult=1 PIC50=6.664542099
C      -4.80350000     1.26460000    -1.65390000
C      -5.55130000     0.88350000    -0.53780000
C      -5.12530000    -0.18240000     0.26040000
C      -3.94370000    -0.87710000    -0.04730000
C      -3.20080000    -0.48920000    -1.18030000
C      -3.63050000     0.57810000    -1.97500000
N      -3.53020000    -1.96530000     0.79870000
S      -1.98030000    -2.73960000     0.69440000
O      -1.83270000    -3.70900000     1.83280000
O      -1.89460000    -3.49330000    -0.60360000
C      -0.69870000    -1.53670000     0.80590000
C       0.44980000    -1.64660000     0.01240000
C       1.46680000    -0.67750000     0.08900000
C       1.32540000     0.41020000     0.97710000
C       0.17090000     0.50710000     1.77360000
C      -0.83110000    -0.46050000     1.68820000
C       2.38970000     1.43790000     1.06420000
O       2.26290000     2.41020000     1.85850000
C       3.60240000     1.32600000     0.22010000
C       4.61890000     2.29620000     0.29420000
C       5.76010000     2.18690000    -0.50320000
C       5.90030000     1.11190000    -1.38090000
C       4.90000000     0.14120000    -1.46550000
C       3.74430000     0.23780000    -0.66850000
C       2.68020000    -0.78980000    -0.75500000
O       2.80740000    -1.76220000    -1.54920000
H      -5.13410000     2.09000000    -2.27100000
H      -6.46130000     1.41450000    -0.29020000
H      -5.71470000    -0.46410000     1.12400000
H      -2.29480000    -1.00490000    -1.46260000
H      -3.05400000     0.87170000    -2.84280000
H      -4.15950000    -2.27170000     1.57430000
H       0.54790000    -2.48520000    -0.66520000
H       0.04090000     1.33190000     2.46290000
H      -1.71370000    -0.36790000     2.30850000
H       4.53240000     3.13940000     0.96800000
H       6.53740000     2.93750000    -0.44020000
H       6.78620000     1.03030000    -1.99750000
H       5.03110000    -0.68400000    -2.15420000
