34
6N0D-Active_29th charge=0 mult=1 PIC50=6.571703186
C      -3.48530000     0.58150000    -2.82850000
O      -2.66420000    -0.10200000    -1.88720000
C      -2.62180000     0.18000000    -0.51090000
C      -3.41020000     1.19710000     0.06100000
C      -3.33880000     1.46420000     1.43250000
C      -2.48900000     0.71220000     2.24390000
C      -1.70580000    -0.30980000     1.70050000
C      -1.75620000    -0.57060000     0.31110000
C      -0.91690000    -1.62550000    -0.29810000
O      -1.48320000    -2.61420000    -0.83560000
C       0.56000000    -1.55700000    -0.32110000
C       1.24560000    -0.46260000     0.04260000
C       2.72660000    -0.37740000     0.03480000
C       3.53200000    -1.21580000    -0.76390000
C       4.92460000    -1.08690000    -0.74260000
C       5.52800000    -0.12010000     0.06430000
C       4.73990000     0.72570000     0.84710000
C       3.34740000     0.60220000     0.82940000
O      -0.90210000    -1.05590000     2.56530000
O      -4.11240000     2.47440000     2.00020000
H      -4.55630000     0.45490000    -2.56380000
H      -3.31560000     0.15110000    -3.83660000
H      -3.22110000     1.65980000    -2.85360000
H      -4.07770000     1.78890000    -0.55000000
H      -2.44450000     0.91550000     3.30670000
H       1.08260000    -2.44450000    -0.64990000
H       0.70520000     0.40600000     0.39810000
H       3.09780000    -1.95350000    -1.42380000
H       5.53640000    -1.73320000    -1.35870000
H       6.60580000    -0.02210000     0.07770000
H       5.20800000     1.47880000     1.46790000
H       2.75340000     1.26760000     1.44440000
H      -0.35140000    -1.84800000     2.25990000
H      -4.74090000     3.03910000     1.44060000
