58
6N0D-Active_2nd charge=0 mult=1 PIC50=6.508638306
C       1.88730000     3.18380000     2.05400000
C       0.62080000     2.75520000     1.67400000
C       0.46240000     1.85360000     0.60930000
C       1.60010000     1.35830000    -0.07160000
C       2.89480000     1.81990000     0.30670000
C       3.01270000     2.73070000     1.37360000
N       4.07330000     1.43320000    -0.42940000
C       5.41900000     1.45740000     0.15050000
C       6.34310000     0.42380000    -0.52380000
N       6.26880000    -0.90970000     0.09550000
C       4.99560000    -1.58470000    -0.18270000
C       5.08740000    -3.06390000     0.19500000
O       5.30590000    -3.21490000     1.57190000
C       1.38980000     0.33570000    -1.13520000
O       2.35370000    -0.35580000    -1.55950000
C       0.03190000     0.08540000    -1.67560000
C      -1.09970000     0.65690000    -1.05140000
C      -0.89800000     1.42090000     0.20900000
O      -1.87300000     1.66770000     0.97000000
C      -2.38850000     0.43920000    -1.61120000
C      -2.52020000    -0.38550000    -2.74050000
C      -1.40180000    -0.97110000    -3.32660000
C      -0.13340000    -0.73200000    -2.80660000
N      -3.55150000     1.10170000    -1.08320000
C      -4.83050000     0.42450000    -0.86680000
C      -4.66940000    -0.72210000     0.14550000
N      -5.95380000    -1.37140000     0.45980000
C      -6.69500000    -0.67720000     1.52440000
C      -6.30560000    -1.22840000     2.89800000
O      -6.54710000    -2.60790000     2.96410000
H       1.99640000     3.88800000     2.86890000
H      -0.23880000     3.13960000     2.20900000
H       3.97740000     3.12220000     1.66690000
H       4.00410000     1.39320000    -1.47080000
H       5.84570000     2.47220000    -0.00120000
H       5.37680000     1.26460000     1.24430000
H       7.38950000     0.78370000    -0.42030000
H       6.14660000     0.36170000    -1.61690000
H       6.39300000    -0.81810000     1.13120000
H       4.75880000    -1.52470000    -1.26780000
H       4.17060000    -1.11280000     0.39500000
H       5.92930000    -3.53400000    -0.35660000
H       4.15090000    -3.58660000    -0.10540000
H       4.44090000    -3.02180000     2.01970000
H      -3.48780000    -0.55440000    -3.19220000
H      -1.51700000    -1.59820000    -4.20150000
H       0.72100000    -1.18440000    -3.29450000
H      -3.48340000     2.11200000    -0.82570000
H      -5.22530000     0.03700000    -1.82890000
H      -5.56520000     1.16300000    -0.48240000
H      -4.17540000    -0.34400000     1.06770000
H      -3.99440000    -1.48950000    -0.28950000
H      -6.54770000    -1.41350000    -0.40190000
H      -7.78650000    -0.83820000     1.38050000
H      -6.52300000     0.42130000     1.50210000
H      -6.87920000    -0.69730000     3.69110000
H      -5.22780000    -1.04450000     3.08750000
H      -7.52850000    -2.72010000     3.06340000
