38
6N0D-Active_31st charge=0 mult=1 PIC50=6.268491816
C       6.53820000     0.81910000     0.84180000
O       5.41040000    -0.04520000     0.74750000
C       4.07740000     0.39090000     0.68250000
C       3.06340000    -0.57440000     0.59270000
C       1.71610000    -0.16730000     0.52190000
C       1.37720000     1.19940000     0.52930000
C       2.39980000     2.15130000     0.63920000
C       3.73610000     1.75520000     0.70900000
C      -0.02820000     1.67020000     0.46780000
C      -1.02600000     0.95490000    -0.07070000
C      -2.41540000     1.45900000    -0.12810000
O      -2.66230000     2.65770000     0.17920000
C      -3.52470000     0.59200000    -0.59020000
C      -3.61440000    -0.76730000    -0.21550000
C      -4.67510000    -1.55390000    -0.68990000
C      -5.65910000    -0.99560000    -1.51480000
C      -5.58520000     0.35390000    -1.86550000
C      -4.52980000     1.14400000    -1.40380000
O      -6.71520000    -1.77180000    -1.98660000
O      -2.67160000    -1.33030000     0.64490000
O       3.43470000    -1.92870000     0.58040000
C       2.52080000    -3.01710000     0.49030000
H       6.58480000     1.48430000    -0.04620000
H       6.47900000     1.42410000     1.77110000
H       7.46230000     0.20650000     0.87530000
H       0.93690000    -0.91370000     0.48860000
H       2.16400000     3.20860000     0.66080000
H       4.49730000     2.51960000     0.78380000
H      -0.23780000     2.66350000     0.84800000
H      -0.82160000    -0.00700000    -0.51970000
H      -4.74060000    -2.59710000    -0.40710000
H      -6.34590000     0.79120000    -2.49970000
H      -4.48890000     2.18620000    -1.69670000
H      -6.79840000    -2.75350000    -1.74940000
H      -2.72300000    -2.30150000     0.92950000
H       1.94150000    -2.95250000    -0.45510000
H       1.83330000    -3.01200000     1.36230000
H       3.08990000    -3.96920000     0.49330000
