36
6N0D-Active_36th charge=0 mult=1 PIC50=6.161654731
C      -4.36180000     0.42750000    -0.71570000
C      -3.29070000    -0.05830000     0.29080000
C      -3.54000000    -1.56020000     0.55030000
C      -3.49160000     0.72960000     1.60380000
C      -1.84680000     0.14430000    -0.21590000
C      -0.76070000    -0.25190000     0.59530000
C       0.57100000    -0.08650000     0.17460000
C       0.83620000     0.48660000    -1.08310000
C      -0.23400000     0.88370000    -1.89700000
C      -1.55300000     0.71670000    -1.47340000
C       2.23590000     0.66600000    -1.53730000
O       2.47160000     1.18010000    -2.66540000
C       3.35920000     0.24270000    -0.66890000
C       4.69200000     0.40790000    -1.08910000
C       5.74710000     0.00720000    -0.26680000
C       5.48600000    -0.56100000     0.98000000
C       4.16840000    -0.73120000     1.41040000
C       3.09490000    -0.33230000     0.59290000
C       1.69490000    -0.51070000     1.04490000
O       1.45960000    -1.02480000     2.17310000
H      -4.25350000     1.51550000    -0.91540000
H      -4.28830000    -0.13190000    -1.67340000
H      -5.38500000     0.26360000    -0.31260000
H      -3.35630000    -2.14760000    -0.37540000
H      -4.58920000    -1.73590000     0.87300000
H      -2.87780000    -1.95320000     1.34960000
H      -2.82900000     0.35510000     2.41170000
H      -4.53910000     0.63530000     1.96410000
H      -3.27270000     1.80760000     1.44460000
H      -0.95040000    -0.69360000     1.56390000
H      -0.05300000     1.32690000    -2.86850000
H      -2.32940000     1.04370000    -2.14850000
H       4.91920000     0.84640000    -2.05270000
H       6.76960000     0.13760000    -0.59730000
H       6.30630000    -0.87040000     1.61490000
H       3.99050000    -1.17450000     2.38210000
