40
6N0D-Active_38th charge=0 mult=1 PIC50=6.113509275
C      -2.85350000     3.34340000     0.09360000
C      -1.57360000     2.54390000     0.11140000
C      -1.54230000     1.13020000     0.31120000
C      -0.29040000     0.45210000     0.27470000
C       0.89850000     1.19060000     0.04300000
C       0.84050000     2.57420000    -0.12310000
C      -0.37440000     3.24120000    -0.08700000
N       2.17520000     0.54380000    -0.06730000
C       2.61560000     0.07870000    -1.38350000
C       3.69970000    -0.99150000    -1.21910000
O       4.73270000    -0.53600000    -0.36510000
C       4.22330000    -0.34030000     0.94100000
C       3.19120000     0.79080000     0.95700000
C      -0.24770000    -1.02480000     0.48890000
O       0.85310000    -1.61880000     0.64870000
C      -1.49700000    -1.81060000     0.54090000
C      -1.45910000    -3.21760000     0.57460000
C      -2.64280000    -3.95540000     0.63470000
C      -3.87330000    -3.30010000     0.66530000
C      -3.92360000    -1.90500000     0.63590000
C      -2.73700000    -1.14910000     0.57190000
C      -2.78510000     0.32960000     0.55510000
O      -3.88910000     0.89770000     0.77130000
H      -2.67560000     4.40650000    -0.17590000
H      -3.32200000     3.33050000     1.09980000
H      -3.55080000     2.93010000    -0.66500000
H       1.74810000     3.13740000    -0.30210000
H      -0.37620000     4.31490000    -0.23180000
H       1.75930000    -0.35130000    -1.94790000
H       3.02510000     0.93810000    -1.95750000
H       4.13640000    -1.21100000    -2.21600000
H       3.25680000    -1.94140000    -0.84200000
H       5.06440000    -0.06430000     1.61110000
H       3.77890000    -1.27900000     1.34440000
H       3.69780000     1.75810000     0.74910000
H       2.71850000     0.84190000     1.96220000
H      -0.51530000    -3.74810000     0.55110000
H      -2.60570000    -5.03700000     0.65820000
H      -4.79000000    -3.87370000     0.71260000
H      -4.89080000    -1.41890000     0.66050000
