30
6N0D-Active_3rd charge=0 mult=1 PIC50=6.110082317
C      -2.63960000    -0.97630000    -1.12390000
C      -4.03000000    -0.84130000    -1.14740000
C      -4.67630000    -0.03310000    -0.20440000
C      -3.92550000     0.63670000     0.76880000
C      -2.52920000     0.50310000     0.79180000
C      -1.87110000    -0.29600000    -0.16530000
C      -0.39850000    -0.48010000    -0.17690000
C       0.46500000     0.39540000     0.36200000
C       1.93760000     0.21120000     0.35040000
C       2.70650000     0.89130000     1.31010000
C       4.09840000     0.75770000     1.33550000
C       4.73820000    -0.05220000     0.38980000
C       3.99100000    -0.72040000    -0.58370000
C       2.59530000    -0.58740000    -0.60760000
O       4.64480000    -1.51080000    -1.52650000
O       4.83580000     1.43450000     2.30460000
O      -4.57390000     1.43020000     1.71380000
O      -6.06290000     0.10570000    -0.22540000
H      -2.16120000    -1.60670000    -1.86380000
H      -4.60470000    -1.36670000    -1.89960000
H      -1.97650000     1.00430000     1.57400000
H      -0.02410000    -1.36830000    -0.66730000
H       0.09070000     1.28360000     0.85250000
H       2.22440000     1.52080000     2.04880000
H       5.81580000    -0.15760000     0.40570000
H       2.04300000    -1.08800000    -1.39050000
H       4.13450000    -2.00850000    -2.24680000
H       5.84530000     1.35930000     2.35050000
H      -4.06000000     1.92740000     2.43190000
H      -6.63260000    -0.36790000    -0.91680000
