30
6N0D-Active_40th charge=0 mult=1 PIC50=5.969764704
C      -4.66300000    -0.99270000    -1.19050000
C      -4.66790000    -1.61040000     0.06240000
C      -3.69460000    -1.28070000     1.01090000
C      -2.69760000    -0.33660000     0.70810000
C      -2.71330000     0.29370000    -0.55020000
C      -3.68850000    -0.03930000    -1.49520000
C      -1.68440000     0.02200000     1.72940000
O      -2.03050000     0.06690000     2.94040000
C      -0.28260000     0.34970000     1.39560000
C       0.34220000    -0.14220000     0.31740000
C       1.74190000     0.19600000    -0.02380000
C       2.76890000     0.25680000     0.94530000
C       4.07510000     0.59040000     0.55610000
C       4.37390000     0.83510000    -0.78990000
C       3.36560000     0.74220000    -1.75160000
C       2.06060000     0.41770000    -1.37320000
O       5.66950000     1.16450000    -1.18180000
O       2.50410000    -0.04100000     2.28200000
H      -5.41790000    -1.24820000    -1.92290000
H      -5.42700000    -2.34460000     0.29970000
H      -3.71290000    -1.77060000     1.97680000
H      -1.98140000     1.05250000    -0.79710000
H      -3.69250000     0.44710000    -2.46210000
H       0.25390000     0.98760000     2.08610000
H      -0.20230000    -0.76670000    -0.38000000
H       4.86120000     0.64540000     1.29880000
H       3.59310000     0.92300000    -2.79450000
H       1.29210000     0.35540000    -2.13450000
H       6.42380000     1.23820000    -0.50910000
H       3.23030000    -0.01100000     2.98810000
