39
6N0D-Active_48th charge=0 mult=1 PIC50=5.663740448
C      -5.34600000     0.69540000     0.35710000
C      -4.66520000    -0.31040000     1.30400000
C      -3.49850000    -1.04180000     0.63300000
N      -2.51010000    -0.08040000     0.11670000
C      -2.94330000     1.27030000    -0.27800000
C      -4.40790000     1.25910000    -0.72640000
C      -1.12150000    -0.46190000    -0.00430000
C      -0.09930000     0.47290000     0.23600000
C       1.25480000     0.10950000     0.11920000
C       1.59180000    -1.21060000    -0.24360000
C       0.56920000    -2.14330000    -0.48280000
C      -0.77090000    -1.77310000    -0.36400000
C       3.01530000    -1.60410000    -0.36950000
O       3.31590000    -2.78550000    -0.69560000
C       4.08630000    -0.61280000    -0.11290000
C       5.44100000    -0.97530000    -0.22890000
C       6.44700000    -0.03770000     0.01410000
C       6.11450000     1.26810000     0.37440000
C       4.77440000     1.64260000     0.49350000
C       3.74970000     0.70890000     0.25180000
C       2.32630000     1.10160000     0.37660000
O       2.02600000     2.28330000     0.70210000
H      -6.20930000     0.20350000    -0.14210000
H      -5.75280000     1.53400000     0.96340000
H      -5.41220000    -1.05010000     1.66490000
H      -4.27460000     0.23340000     2.19240000
H      -3.87700000    -1.66990000    -0.20220000
H      -3.02510000    -1.70570000     1.38930000
H      -2.81630000     1.96640000     0.57910000
H      -2.32430000     1.63640000    -1.12650000
H      -4.72410000     2.28990000    -0.99650000
H      -4.49040000     0.63170000    -1.64130000
H      -0.35980000     1.48160000     0.52930000
H       0.80440000    -3.16180000    -0.76540000
H      -1.53550000    -2.51100000    -0.56860000
H       5.72350000    -1.98290000    -0.50720000
H       7.48670000    -0.32450000    -0.07730000
H       6.89680000     1.99230000     0.56200000
H       4.54080000     2.66190000     0.77440000
