37
6N0D-Active_4th charge=0 mult=1 PIC50=5.536390664
C       7.12350000    -1.09320000    -0.09760000
O       5.89140000    -1.69360000    -0.48340000
C       4.62730000    -1.14120000    -0.22880000
C       4.45930000     0.08070000     0.44810000
C       3.17810000     0.59220000     0.67670000
C       2.03970000    -0.10410000     0.22480000
C       2.21530000    -1.33030000    -0.43600000
C       3.49670000    -1.83910000    -0.66420000
C       0.65830000     0.38820000     0.44920000
C       0.35180000     1.67280000     0.68480000
C      -1.03430000     2.13720000     0.90570000
O      -1.20840000     3.22650000     1.51480000
C      -2.22200000     1.37840000     0.45050000
C      -2.32160000     0.88790000    -0.86710000
C      -3.46120000     0.17180000    -1.26100000
C      -4.51550000    -0.04450000    -0.36750000
C      -4.42460000     0.46950000     0.93860000
C      -3.28990000     1.17940000     1.33890000
O      -5.63120000    -0.76730000    -0.81570000
C      -6.77290000    -1.06070000    -0.01700000
O      -1.30040000     1.12670000    -1.78710000
H       7.96130000    -1.74160000    -0.42640000
H       7.23190000    -0.09940000    -0.58110000
H       7.16760000    -0.98810000     1.00700000
H       5.31200000     0.63990000     0.80850000
H       3.09030000     1.51770000     1.22790000
H       1.35780000    -1.89270000    -0.78560000
H       3.61170000    -2.78280000    -1.18250000
H      -0.14100000    -0.34030000     0.38590000
H       1.13120000     2.41870000     0.75190000
H      -3.53330000    -0.21140000    -2.27120000
H      -5.22410000     0.32530000     1.65230000
H      -3.23810000     1.56230000     2.35110000
H      -7.49790000    -1.64350000    -0.62120000
H      -7.26050000    -0.11910000     0.31260000
H      -6.47630000    -1.66700000     0.86490000
H      -1.35190000     0.78480000    -2.73950000
