27
6N0D-Active_52th charge=0 mult=1 PIC50=5.399996913
C      -3.65990000     1.52410000    -0.63780000
C      -3.99960000     0.17130000    -0.68670000
C      -3.03430000    -0.80310000    -0.42200000
C      -1.71410000    -0.42880000    -0.11330000
C      -1.37190000     0.93420000    -0.06350000
C      -2.35370000     1.90720000    -0.32410000
C       0.00730000     1.32450000     0.29510000
O       0.23530000     2.50900000     0.66260000
C       1.09940000     0.30750000     0.27880000
C       2.46700000     0.68260000     0.36710000
C       3.44990000    -0.30750000     0.47280000
C       3.11220000    -1.65270000     0.39900000
C       1.78740000    -2.04670000     0.21760000
C       0.75370000    -1.07150000     0.21690000
C      -0.69000000    -1.44740000     0.19820000
O      -1.06020000    -2.60830000     0.52010000
O       1.55440000    -3.40830000     0.00880000
N       2.88260000     2.05430000     0.29300000
O       3.78980000     2.47270000     1.04150000
O       2.49340000     2.82630000    -0.77750000
H      -4.41030000     2.27720000    -0.84090000
H      -5.01310000    -0.12290000    -0.92750000
H      -3.31810000    -1.84740000    -0.46260000
H      -2.11070000     2.96180000    -0.28920000
H       4.49420000    -0.03270000     0.55540000
H       3.89710000    -2.39840000     0.42800000
H       0.71230000    -3.77710000    -0.40970000
