56
6N0D-Active_56th charge=0 mult=1 PIC50=5.347395925
C      -5.13990000    -0.63350000    -0.52140000
C      -3.83800000     0.13670000    -0.84700000
C      -3.94590000     1.61600000    -0.42800000
C      -4.14010000     1.80320000     1.08170000
C      -3.43880000     0.74940000     1.96120000
N      -2.41250000    -0.03140000     1.24810000
C      -2.61740000    -0.50450000    -0.13560000
C      -1.25800000    -0.49210000     1.99090000
O      -1.24560000    -0.41840000     3.24990000
C      -0.05740000    -1.02570000     1.31450000
C       1.12880000    -0.26340000     1.23280000
C       2.28180000    -0.81700000     0.60990000
C       2.19400000    -2.09130000     0.00130000
C       1.00280000    -2.82720000     0.09400000
C      -0.09990000    -2.30970000     0.76480000
C       3.35590000    -2.65610000    -0.72760000
O       3.27510000    -3.80040000    -1.25380000
C       4.60710000    -1.87720000    -0.85070000
C       5.68530000    -2.36510000    -1.61210000
C       6.86630000    -1.62760000    -1.71780000
C       6.98530000    -0.40040000    -1.06550000
C       5.92370000     0.09420000    -0.30490000
C       4.72630000    -0.63690000    -0.19240000
C       3.60180000    -0.12180000     0.62270000
O       3.79100000     0.87900000     1.36630000
N       1.14250000     1.07290000     1.76280000
C       1.18910000     2.23790000     0.88040000
C      -0.22380000     2.65800000     0.48170000
O      -0.18810000     3.84730000    -0.25850000
C      -3.62270000     0.07130000    -2.37540000
H      -5.08340000    -1.67420000    -0.90750000
H      -6.01410000    -0.13640000    -0.99460000
H      -5.32960000    -0.69500000     0.56700000
H      -4.78910000     2.10730000    -0.96260000
H      -3.01960000     2.15110000    -0.73210000
H      -3.77350000     2.81680000     1.35660000
H      -5.22830000     1.78770000     1.31120000
H      -2.98590000     1.28630000     2.82350000
H      -4.18660000     0.04910000     2.38930000
H      -1.69890000    -0.26910000    -0.71670000
H      -2.72610000    -1.61010000    -0.13600000
H       0.92490000    -3.81410000    -0.34470000
H      -0.99570000    -2.91260000     0.84740000
H       5.61600000    -3.31550000    -2.12640000
H       7.69110000    -2.00880000    -2.30610000
H       7.90220000     0.16890000    -1.14880000
H       6.03870000     1.04960000     0.19170000
H       0.78640000     1.22500000     2.73320000
H       1.77650000     2.00930000    -0.03520000
H       1.68810000     3.07520000     1.41390000
H      -0.83500000     2.82570000     1.39410000
H      -0.70040000     1.84910000    -0.11240000
H       0.11680000     3.60450000    -1.17190000
H      -3.49010000    -0.98150000    -2.70670000
H      -2.71840000     0.64460000    -2.67480000
H      -4.49490000     0.50070000    -2.91450000
