58
6N0D-Active_59th charge=0 mult=1 PIC50=5.244125144
C       8.23060000     1.78600000    -0.10680000
C       7.03130000     1.50360000    -0.97430000
C       7.23020000     1.03600000    -2.21880000
C       5.62780000     1.76220000    -0.44760000
C       4.82640000     0.45050000    -0.30600000
C       3.43230000     0.69830000     0.28990000
C       2.72860000    -0.60770000     0.59500000
C       2.27000000    -1.36300000    -0.43020000
C       1.56940000    -2.69460000    -0.27780000
C       0.13130000    -2.53310000     0.17860000
C      -0.25440000    -2.99310000     1.45700000
C      -1.56730000    -2.81500000     1.90070000
C      -2.51370000    -2.20520000     1.08380000
C      -2.17100000    -1.76890000    -0.20420000
C      -0.84600000    -1.93750000    -0.66490000
O      -0.52910000    -1.50250000    -1.95640000
C      -3.21450000    -1.18070000    -1.08120000
O      -3.19860000    -1.43390000    -2.31690000
C      -4.27130000    -0.30680000    -0.52280000
C      -5.31250000     0.10890000    -1.25940000
C      -6.39000000     1.00090000    -0.75890000
C      -6.61070000     1.24350000     0.61320000
C      -7.64660000     2.08860000     1.02490000
C      -8.48160000     2.69390000     0.08200000
C      -8.27900000     2.44900000    -1.28100000
C      -7.24540000     1.60520000    -1.69700000
O      -9.51160000     3.53010000     0.50960000
O       0.66650000    -3.63090000     2.28920000
C       2.56670000    -1.03130000     2.03450000
O       4.96050000     2.70270000    -1.25500000
H       8.82150000     0.85670000     0.03250000
H       7.93510000     2.16120000     0.89480000
H       8.87030000     2.55460000    -0.59010000
H       6.39870000     0.82080000    -2.88280000
H       8.23420000     0.85950000    -2.59140000
H       5.70570000     2.20740000     0.56790000
H       4.72260000    -0.04130000    -1.29740000
H       5.38910000    -0.23880000     0.36180000
H       2.81510000     1.29210000    -0.41980000
H       3.53260000     1.30420000     1.21640000
H       2.43840000    -1.01400000    -1.44610000
H       2.15970000    -3.35020000     0.39510000
H       1.57280000    -3.21870000    -1.25700000
H      -1.86050000    -3.16220000     2.88300000
H      -3.52790000    -2.10860000     1.44980000
H       0.37050000    -1.64050000    -2.39450000
H      -4.16240000     0.01420000     0.50280000
H      -5.36820000    -0.19500000    -2.29910000
H      -6.00900000     0.77310000     1.37700000
H      -7.80670000     2.26520000     2.08120000
H      -8.92490000     2.90790000    -2.01880000
H      -7.11150000     1.42710000    -2.75650000
H     -10.13020000     3.98710000    -0.15020000
H       0.40970000    -3.96700000     3.21010000
H       2.98340000    -2.04850000     2.18710000
H       1.49520000    -1.01090000     2.31600000
H       3.10910000    -0.34850000     2.72000000
H       4.70950000     2.25800000    -2.10740000
