32
6N0D-Active_62th charge=0 mult=1 PIC50=5.050000457
C      -2.89880000    -1.23560000     1.41830000
N      -2.54740000    -0.82710000     0.05960000
C      -3.32630000    -1.35680000    -1.05780000
C      -1.81830000     0.39640000    -0.12010000
C      -2.53750000     1.58580000    -0.29940000
C      -1.87320000     2.79980000    -0.44500000
C      -0.48200000     2.84390000    -0.40840000
C       0.26690000     1.66680000    -0.23210000
C      -0.39820000     0.42380000    -0.09420000
C       0.41500000    -0.81800000     0.05740000
O      -0.14450000    -1.94710000     0.10720000
C       1.89340000    -0.74190000     0.13270000
C       2.66130000    -1.90700000     0.32060000
C       4.05410000    -1.83390000     0.38740000
C       4.69630000    -0.60190000     0.26690000
C       3.94830000     0.56200000     0.07930000
C       2.54370000     0.50310000     0.01090000
C       1.74740000     1.73330000    -0.18950000
O       2.33210000     2.84410000    -0.32140000
H      -3.85140000    -0.75140000     1.71990000
H      -2.09960000    -0.94050000     2.13190000
H      -3.01630000    -2.33880000     1.46710000
H      -3.42200000    -2.45940000    -0.96680000
H      -4.33860000    -0.90060000    -1.06060000
H      -2.82140000    -1.13170000    -2.02180000
H      -3.62010000     1.56860000    -0.31610000
H      -2.43950000     3.71230000    -0.58020000
H       0.00860000     3.80300000    -0.51790000
H       2.18620000    -2.87520000     0.41720000
H       4.63650000    -2.73460000     0.53260000
H       5.77620000    -0.54830000     0.31880000
H       4.46900000     1.50700000    -0.01160000
