28
6N0D-Active_67th charge=0 mult=1 PIC50=5.021230243
C       5.00820000    -0.55820000     0.78110000
C       3.93830000     0.03840000     1.45100000
C       2.70380000     0.18810000     0.81110000
C       2.52540000    -0.26630000    -0.51090000
C       3.61670000    -0.85410000    -1.17860000
C       4.84820000    -1.00180000    -0.53310000
C       1.22650000    -0.11100000    -1.21290000
O       1.21320000    -0.06710000    -2.47430000
C      -0.05040000    -0.03350000    -0.46630000
C      -1.21270000     0.25480000    -1.07010000
C      -2.51200000     0.32030000    -0.35510000
C      -2.59260000     0.61940000     1.02110000
C      -3.83460000     0.68730000     1.65940000
C      -5.00800000     0.46810000     0.93610000
C      -4.94330000     0.18710000    -0.42970000
C      -3.70490000     0.11810000    -1.07660000
F      -3.67180000    -0.16150000    -2.40480000
H       5.96280000    -0.67210000     1.27850000
H       4.06700000     0.39190000     2.46590000
H       1.90290000     0.68030000     1.34610000
H       3.51470000    -1.20980000    -2.19640000
H       5.67930000    -1.46090000    -1.05290000
H      -0.03790000    -0.26320000     0.58930000
H      -1.22220000     0.41530000    -2.14170000
H      -1.70560000     0.82680000     1.60400000
H      -3.88730000     0.91810000     2.71570000
H      -5.96820000     0.52240000     1.43270000
H      -5.85560000     0.02280000    -0.98880000
