64
6N0D-Active_6th charge=0 mult=1 PIC50=5.013299908
C       0.59530000     3.05680000    -1.44000000
C      -0.50190000     2.20150000    -1.46530000
C      -0.38660000     0.87430000    -1.01460000
C       0.86000000     0.40010000    -0.54580000
C       1.96560000     1.29410000    -0.48270000
C       1.81650000     2.61220000    -0.94520000
N       3.21130000     0.89750000     0.11640000
C       4.50510000     1.38470000    -0.36060000
C       5.58990000     0.33140000    -0.11790000
C       6.95260000     0.80760000    -0.65110000
N       8.01700000    -0.18330000    -0.41550000
C       8.60680000    -0.07490000     0.92730000
C       9.80210000     0.88010000     0.90340000
O      10.38020000     0.96870000     2.17750000
C       0.98020000    -1.03710000    -0.17910000
O       2.11560000    -1.55480000     0.00730000
C      -0.22610000    -1.89430000    -0.08740000
C      -1.48500000    -1.41610000    -0.52400000
C      -1.57720000    -0.01230000    -1.02270000
O      -2.67580000     0.45220000    -1.43070000
C      -2.61840000    -2.27670000    -0.43840000
C      -2.46740000    -3.57020000     0.08900000
C      -1.22630000    -4.02250000     0.52100000
C      -0.11230000    -3.19620000     0.42980000
N      -3.91140000    -1.87100000    -0.91970000
C      -5.15360000    -2.25050000    -0.24570000
C      -6.19090000    -1.12630000    -0.33730000
C      -5.78910000     0.09050000     0.51810000
N      -6.71210000     1.22460000     0.35150000
C      -8.00620000     0.99100000     1.00750000
C      -8.78980000     2.29750000     1.10560000
O      -9.11720000     2.75830000    -0.17600000
H       0.49210000     4.07730000    -1.78610000
H      -1.44450000     2.58360000    -1.83700000
H       2.64180000     3.31090000    -0.89520000
H       3.17940000     0.39770000     1.03380000
H       4.44690000     1.60160000    -1.45020000
H       4.76190000     2.32110000     0.18050000
H       5.30060000    -0.61100000    -0.63310000
H       5.65870000     0.12710000     0.97170000
H       7.21740000     1.78980000    -0.20050000
H       6.86950000     0.96860000    -1.74760000
H       7.63550000    -1.14950000    -0.54720000
H       7.86520000     0.26740000     1.68210000
H       8.96790000    -1.07710000     1.25080000
H      10.55590000     0.53240000     0.16030000
H       9.46640000     1.89380000     0.59970000
H      10.89290000     0.13060000     2.31700000
H      -3.31300000    -4.24360000     0.14510000
H      -1.12550000    -5.02340000     0.92060000
H       0.84190000    -3.57720000     0.77140000
H      -3.98140000    -1.51280000    -1.89840000
H      -4.96200000    -2.48630000     0.82450000
H      -5.56160000    -3.16110000    -0.73380000
H      -6.31720000    -0.82400000    -1.39990000
H      -7.16140000    -1.52700000     0.02340000
H      -4.77650000     0.42910000     0.21590000
H      -5.72040000    -0.20090000     1.58950000
H      -6.86880000     1.39470000    -0.67000000
H      -7.85470000     0.60430000     2.03960000
H      -8.60790000     0.25140000     0.43510000
H      -9.72110000     2.11540000     1.68780000
H      -8.17830000     3.05980000     1.63820000
H      -9.65040000     3.58540000    -0.04280000
