40
6N0D-Active_72th charge=0 mult=1 PIC50=4.889800994
C      -4.63740000    -0.37950000    -0.03770000
N      -3.61870000     0.29100000     0.77920000
C      -4.04950000     1.11170000     1.91730000
C      -2.20920000     0.14220000     0.46840000
C      -1.27940000     1.12360000     0.85140000
C       0.08890000     0.98920000     0.55640000
C       0.55170000    -0.15260000    -0.13640000
C      -0.38440000    -1.13950000    -0.53310000
C      -1.74220000    -0.98420000    -0.22720000
N       0.02330000    -2.30450000    -1.26580000
C      -0.01130000    -2.25620000    -2.72590000
C      -0.02160000    -3.60600000    -0.60260000
C       2.01120000    -0.28790000    -0.41800000
O       2.46120000    -1.32140000    -0.98350000
C       2.95390000     0.78570000    -0.02420000
C       4.32640000     0.67710000    -0.31890000
C       5.21310000     1.68870000     0.05570000
C       4.74330000     2.81700000     0.72720000
C       3.38500000     2.93820000     1.02670000
C       2.48010000     1.92640000     0.65450000
C       1.04060000     2.04960000     0.97090000
O       0.62210000     3.06360000     1.59520000
H      -4.42300000    -0.22000000    -1.11580000
H      -5.65180000     0.02510000     0.16460000
H      -4.64510000    -1.46680000     0.18570000
H      -3.43820000     0.86830000     2.81230000
H      -3.93950000     2.18810000     1.66990000
H      -5.11240000     0.92070000     2.17690000
H      -1.62090000     2.00770000     1.37150000
H      -2.42880000    -1.76060000    -0.53620000
H       0.25880000    -1.24040000    -3.08670000
H      -1.03100000    -2.51010000    -3.08470000
H       0.71740000    -2.97920000    -3.14960000
H      -1.03660000    -4.04500000    -0.70400000
H       0.72170000    -4.29270000    -1.05970000
H       0.22360000    -3.49870000     0.47590000
H       4.71560000    -0.18890000    -0.83950000
H       6.26660000     1.59720000    -0.17520000
H       5.43290000     3.59960000     1.01650000
H       3.04360000     3.82330000     1.54870000
