29
6N0D-Active_76th charge=0 mult=1 PIC50=7.586700236
C      -3.35080000     2.38760000    -1.16870000
N      -2.28500000     1.40060000    -1.30460000
C      -2.03210000     0.39280000    -0.30900000
C      -3.11960000    -0.26610000     0.28930000
C      -2.91470000    -1.32090000     1.17320000
C      -1.62380000    -1.74930000     1.46400000
C      -0.51270000    -1.10580000     0.89430000
C      -0.70560000    -0.00240000     0.02600000
C       0.49550000     0.73940000    -0.45870000
O       0.37570000     1.87480000    -0.99380000
C       1.85270000     0.18350000    -0.24940000
C       2.97540000     0.79170000    -0.84160000
C       4.25470000     0.27330000    -0.62980000
C       4.42880000    -0.85200000     0.17570000
C       3.32430000    -1.46340000     0.77250000
C       2.02950000    -0.95280000     0.56510000
C       0.85580000    -1.59020000     1.19970000
O       1.02030000    -2.55630000     1.99500000
H      -3.25050000     3.15930000    -1.96080000
H      -4.34140000     1.90110000    -1.27960000
H      -3.28230000     2.88300000    -0.17730000
H      -1.68130000     1.44770000    -2.15550000
H      -4.13610000     0.01220000     0.04750000
H      -3.76340000    -1.82520000     1.61740000
H      -1.49570000    -2.58780000     2.13710000
H       2.86470000     1.66590000    -1.47110000
H       5.11260000     0.74570000    -1.09060000
H       5.42160000    -1.25110000     0.33890000
H       3.48350000    -2.33540000     1.39450000
