52
6N0D-Active_7th charge=0 mult=1 PIC50=6.436163081
C      -5.21190000    -0.21540000    -3.25320000
O      -5.40320000    -0.29770000    -1.84430000
C      -4.37480000    -0.31450000    -0.88820000
C      -3.02240000    -0.26400000    -1.28130000
C      -1.99080000    -0.27710000    -0.32890000
C      -2.31900000    -0.37050000     1.02750000
C      -3.66040000    -0.41940000     1.44330000
C      -4.69290000    -0.38810000     0.49240000
O      -6.00990000    -0.43600000     0.98980000
C      -7.20930000    -0.40380000     0.22410000
O      -4.01210000    -0.49890000     2.80110000
C      -3.08120000    -0.53530000     3.87830000
C      -0.55770000    -0.23160000    -0.70810000
C      -0.10500000     0.32610000    -1.84070000
C       1.33110000     0.37570000    -2.18870000
O       1.64300000     0.42250000    -3.40900000
C       2.41100000     0.39430000    -1.17090000
C       2.25090000     1.09090000     0.03350000
C       3.27730000     1.11260000     0.99280000
C       4.49070000     0.45200000     0.73990000
C       4.67400000    -0.23540000    -0.48800000
C       3.62700000    -0.25000000    -1.43060000
O       5.88790000    -0.89020000    -0.75130000
C       6.18670000    -1.61350000    -1.94120000
O       5.46910000     0.52110000     1.75080000
C       6.76300000    -0.07120000     1.72260000
O       3.13030000     1.78410000     2.21790000
C       1.95010000     2.46640000     2.63060000
H      -6.20240000    -0.20990000    -3.75260000
H      -4.67900000     0.72380000    -3.51250000
H      -4.63900000    -1.09580000    -3.61330000
H      -2.77430000    -0.24270000    -2.33120000
H      -1.52160000    -0.39180000     1.75900000
H      -8.07600000    -0.44530000     0.91490000
H      -7.27200000     0.54280000    -0.35300000
H      -7.26080000    -1.28580000    -0.44840000
H      -2.46710000     0.39010000     3.88420000
H      -2.42780000    -1.42870000     3.78850000
H      -3.63750000    -0.59780000     4.83580000
H       0.15320000    -0.64290000    -0.00170000
H      -0.79710000     0.73530000    -2.56380000
H       1.32850000     1.62530000     0.21460000
H       3.74610000    -0.77420000    -2.36930000
H       6.13140000    -0.93980000    -2.82230000
H       5.48040000    -2.46210000    -2.06000000
H       7.21720000    -2.01760000    -1.86900000
H       7.28440000     0.16260000     2.67320000
H       6.67950000    -1.17490000     1.63640000
H       7.36120000     0.34960000     0.88710000
H       1.72910000     3.30280000     1.93430000
H       2.10910000     2.88330000     3.64600000
H       1.09310000     1.76050000     2.66620000
