46
6N0D-Active_80th charge=0 mult=1 PIC50=6.186218922
C      -7.09970000     1.93080000     0.77150000
C      -7.12850000     1.78500000    -0.61540000
C      -6.11480000     1.07940000    -1.26700000
C      -5.05770000     0.51030000    -0.53300000
C      -5.02860000     0.65790000     0.87090000
C      -6.05710000     1.37160000     1.51340000
C      -3.91990000     0.06320000     1.65390000
O      -3.89370000     0.19520000     2.90870000
C      -2.84180000    -0.68610000     0.96620000
C      -2.87170000    -0.83550000    -0.43660000
C      -3.97990000    -0.23950000    -1.22020000
O      -4.00610000    -0.37080000    -2.47500000
C      -1.84300000    -1.54750000    -1.08000000
C      -0.79720000    -2.11770000    -0.34010000
C      -0.76600000    -1.95110000     1.05030000
C      -1.78150000    -1.24710000     1.69910000
C       0.32190000    -2.83600000    -1.04150000
N       1.34890000    -1.88090000    -1.44030000
C       2.35170000    -1.41550000    -0.67730000
C       3.01470000    -0.47560000    -1.44530000
N       2.38650000    -0.39690000    -2.63880000
N       1.37710000    -1.25460000    -2.60480000
C       4.19600000     0.33670000    -1.06840000
C       4.78830000     0.21740000     0.20350000
C       5.91690000     0.98370000     0.54740000
C       6.42320000     1.90930000    -0.38000000
C       5.84140000     2.03290000    -1.64250000
C       4.73860000     1.25000000    -1.98830000
C       6.51240000     0.88250000     1.92980000
F       7.85380000     1.22420000     1.91420000
F       5.83930000     1.74080000     2.77890000
F       6.40190000    -0.40960000     2.41370000
H      -7.88710000     2.47840000     1.27330000
H      -7.93810000     2.21970000    -1.18730000
H      -6.15860000     0.97940000    -2.34430000
H      -6.05610000     1.49800000     2.58880000
H      -1.84960000    -1.65870000    -2.15780000
H       0.04770000    -2.36500000     1.63320000
H      -1.73380000    -1.13830000     2.77540000
H      -0.06490000    -3.36510000    -1.93970000
H       0.76540000    -3.60880000    -0.37570000
H       2.55820000    -1.72770000     0.33760000
H       4.37530000    -0.46620000     0.93260000
H       7.26740000     2.53890000    -0.12860000
H       6.24340000     2.74250000    -2.35420000
H       4.30550000     1.36620000    -2.97400000
