34
6N0D-Active_81st charge=0 mult=1 PIC50=5.286215547
C      -2.04660000     1.91780000     1.63960000
O      -1.73430000     0.99920000     0.59770000
C      -2.56910000    -0.04980000     0.17670000
C      -2.13800000    -0.90360000    -0.86640000
C      -3.00460000    -1.89670000    -1.34890000
C      -4.26400000    -2.08080000    -0.77670000
C      -4.68260000    -1.26690000     0.27620000
C      -3.84060000    -0.25380000     0.75110000
O      -5.94040000    -1.46830000     0.84070000
C      -0.81240000    -0.76200000    -1.51140000
C       0.30790000    -0.51880000    -0.81840000
C       1.63180000    -0.40850000    -1.47120000
O       1.75510000    -0.72860000    -2.68580000
C       2.82710000     0.05000000    -0.72000000
C       2.70760000     0.88800000     0.40620000
C       3.84630000     1.31540000     1.09590000
C       5.11950000     0.91920000     0.66850000
C       5.24840000     0.09740000    -0.45420000
C       4.11250000    -0.33150000    -1.14740000
O       6.26030000     1.33840000     1.34930000
H      -2.96060000     2.49280000     1.38090000
H      -1.20290000     2.62780000     1.76030000
H      -2.19270000     1.37410000     2.59680000
H      -2.69720000    -2.54390000    -2.16170000
H      -4.91550000    -2.86000000    -1.15160000
H      -4.19080000     0.37660000     1.55680000
H      -6.27640000    -0.89430000     1.60530000
H      -0.75330000    -0.93650000    -2.57940000
H       0.25760000    -0.44200000     0.25930000
H       1.74040000     1.23540000     0.74440000
H       3.73790000     1.96020000     1.95880000
H       6.23050000    -0.20980000    -0.79060000
H       4.23910000    -0.97140000    -2.01190000
H       6.20000000     1.93520000     2.16610000
