31
6N0D-Active_82th charge=0 mult=1 PIC50=5.236212739
C       2.75000000    -0.24200000     0.61230000
C       4.04180000    -0.65140000     0.95770000
C       5.13170000    -0.30290000     0.15050000
C       4.92430000     0.46160000    -1.00050000
C       3.63460000     0.87370000    -1.34900000
C       2.53090000     0.51650000    -0.55600000
C       1.18320000     0.98660000    -0.96050000
C       0.04260000     0.40730000    -0.55910000
C      -1.28420000     0.89420000    -0.99600000
O      -1.36560000     1.77170000    -1.89920000
C      -2.53080000     0.33220000    -0.42560000
C      -2.65560000     0.04050000     0.95120000
C      -3.85080000    -0.50480000     1.44410000
C      -4.93030000    -0.74160000     0.58450000
C      -4.81710000    -0.43050000    -0.77190000
C      -3.62930000     0.10670000    -1.27380000
O      -6.11980000    -1.28080000     1.06940000
O      -1.60940000     0.31460000     1.83230000
O       6.42220000    -0.70690000     0.48530000
H       1.93720000    -0.50170000     1.27600000
H       4.19530000    -1.23330000     1.85770000
H       5.76380000     0.73820000    -1.62570000
H       3.49720000     1.46610000    -2.24560000
H       1.13420000     1.82390000    -1.64720000
H       0.07270000    -0.46990000     0.07150000
H      -3.94420000    -0.73340000     2.49830000
H      -5.65060000    -0.60790000    -1.43970000
H      -3.56200000     0.33160000    -2.33130000
H      -6.23450000    -1.51620000     2.04830000
H      -1.68290000     0.11850000     2.82380000
H       6.60540000    -1.26080000     1.31380000
