44
6N0D-Active_9th charge=0 mult=1 PIC50=5.136213347
C       6.38250000     2.28110000    -0.29060000
N       5.97900000     0.86940000    -0.27830000
C       7.01350000    -0.16480000    -0.40570000
C       4.58060000     0.50260000    -0.14130000
C       4.20850000    -0.78600000     0.29240000
C       2.86250000    -1.13830000     0.42610000
C       1.84780000    -0.20800000     0.13680000
C       2.21260000     1.06920000    -0.31170000
C       3.55760000     1.42340000    -0.44430000
C       0.40460000    -0.53370000     0.25170000
C      -0.07990000    -1.52450000     1.01550000
C      -1.52330000    -1.83040000     1.11100000
O      -1.86230000    -2.98510000     1.48510000
C      -2.57990000    -0.83240000     0.81480000
C      -3.72180000    -1.19290000     0.06940000
C      -4.72330000    -0.22990000    -0.17140000
C      -4.59390000     1.08010000     0.32650000
C      -3.46140000     1.41930000     1.06950000
C      -2.46600000     0.47420000     1.31720000
O      -5.56500000     2.06910000     0.10760000
C      -6.76730000     1.86940000    -0.62880000
O      -3.82400000    -2.50400000    -0.42680000
C      -4.91650000    -2.99790000    -1.19490000
H       7.48240000     2.39350000    -0.18580000
H       6.07550000     2.75300000    -1.24720000
H       5.91040000     2.81630000     0.56040000
H       7.15160000    -0.68210000     0.56660000
H       7.98990000     0.26800000    -0.71000000
H       6.71830000    -0.90050000    -1.18380000
H       4.95420000    -1.53000000     0.53560000
H       2.62950000    -2.14770000     0.73440000
H       1.45190000     1.80160000    -0.55460000
H       3.78820000     2.41910000    -0.79630000
H      -0.28630000     0.09070000    -0.30140000
H       0.59000000    -2.16400000     1.57280000
H      -5.59780000    -0.49750000    -0.74500000
H      -3.35460000     2.42220000     1.46310000
H      -1.60820000     0.76090000     1.91320000
H      -7.34500000     2.81620000    -0.64280000
H      -7.38510000     1.08330000    -0.14550000
H      -6.53110000     1.58180000    -1.67500000
H      -5.85710000    -2.93090000    -0.60840000
H      -4.73050000    -4.06210000    -1.44630000
H      -5.01100000    -2.42150000    -2.13940000
