27
8AOJ-10th charge=0 mult=1 PIC50=5.08621263
C       3.96990000    -1.14310000    -0.07940000
C       4.11490000     0.23120000     0.11780000
C       2.98920000     1.05830000     0.13900000
C       1.70450000     0.51140000    -0.02870000
C       1.55850000    -0.87230000    -0.22740000
C       2.69870000    -1.69500000    -0.25630000
C       0.20970000    -1.43430000    -0.44460000
O       0.09760000    -2.55930000    -1.00140000
C      -0.99620000    -0.63170000    -0.08620000
C      -0.84810000     0.76910000     0.11800000
C       0.50620000     1.37510000    -0.04090000
O       0.64250000     2.60820000    -0.26300000
C      -1.99290000     1.55270000     0.42840000
C      -3.26190000     0.96780000     0.41790000
C      -3.40290000    -0.40220000     0.20640000
C      -2.28680000    -1.21570000     0.01870000
O      -2.50840000    -2.59440000    -0.02500000
O      -4.38590000     1.75820000     0.65540000
O      -1.91520000     2.90200000     0.78550000
H       4.84390000    -1.78130000    -0.09840000
H       5.10110000     0.65670000     0.25150000
H       3.12180000     2.12240000     0.29020000
H       2.60650000    -2.76280000    -0.41120000
H      -4.38770000    -0.85140000     0.24710000
H      -1.78850000    -3.28560000     0.13060000
H      -5.31990000     1.36510000     0.66570000
H      -1.07040000     3.35070000     1.10990000
