32
8AOJ-11th charge=0 mult=1 PIC50=5.036212173
C      -3.15910000     0.05630000    -1.37450000
N      -2.61550000     0.56550000    -0.11690000
C      -3.32450000     1.64280000     0.57080000
C      -1.73210000    -0.27740000     0.63790000
C      -2.28220000    -1.13360000     1.60160000
C      -1.46770000    -1.99140000     2.33420000
C      -0.09340000    -2.01020000     2.11130000
C       0.48780000    -1.16130000     1.15280000
C      -0.33010000    -0.27570000     0.40900000
C       0.30960000     0.64140000    -0.57890000
O      -0.38100000     1.49290000    -1.20210000
C       1.76960000     0.57610000    -0.82690000
C       2.36960000     1.40900000    -1.79060000
C       3.74570000     1.34880000    -2.02020000
C       4.53780000     0.46080000    -1.29310000
C       3.95710000    -0.37070000    -0.33360000
C       2.57140000    -0.32120000    -0.09240000
C       1.95230000    -1.19910000     0.92440000
O       2.67460000    -1.98540000     1.59740000
H      -2.41360000    -0.58900000    -1.88720000
H      -3.41040000     0.89990000    -2.05150000
H      -4.07530000    -0.53760000    -1.17270000
H      -3.55880000     2.46100000    -0.14250000
H      -2.69420000     2.06250000     1.38400000
H      -4.26960000     1.25400000     1.00500000
H      -3.35100000    -1.13960000     1.77590000
H      -1.90440000    -2.65010000     3.07390000
H       0.51580000    -2.69230000     2.69120000
H       1.77610000     2.10660000    -2.36820000
H       4.19850000     1.99240000    -2.76340000
H       5.60430000     0.41650000    -1.47310000
H       4.59240000    -1.05200000     0.21850000
