60
8AOJ-12th charge=0 mult=1 PIC50=4.986215108
C      -0.87400000     1.79070000     1.11790000
C       0.43740000     2.05070000     0.74530000
C       1.20260000     1.08020000     0.08950000
C       0.63170000    -0.18940000    -0.20230000
C      -0.73010000    -0.42540000     0.11590000
C      -1.47250000     0.56300000     0.81540000
N      -2.80860000     0.29940000     1.28090000
C      -3.90940000     1.25340000     1.14490000
C      -4.18930000     1.54520000    -0.33870000
N      -5.25220000     2.54530000    -0.52620000
C      -6.58870000     1.99770000    -0.25710000
C      -7.65910000     2.96170000    -0.76100000
O      -7.52660000     3.14240000    -2.14430000
C      -1.37060000    -1.68430000    -0.35200000
O      -2.62560000    -1.74990000    -0.45300000
C      -0.54230000    -2.83520000    -0.78670000
C      -1.11680000    -4.11250000    -0.98830000
C      -0.32260000    -5.17550000    -1.42730000
C       1.03480000    -4.99000000    -1.66100000
C       1.62620000    -3.73940000    -1.45560000
C       0.84020000    -2.64590000    -1.01420000
C       1.44250000    -1.30280000    -0.78470000
O       2.66080000    -1.12230000    -1.05020000
O       2.99410000    -3.59190000    -1.68940000
O      -2.47290000    -4.33350000    -0.74340000
N       2.53550000     1.41840000    -0.32470000
C       3.46590000     2.14130000     0.54180000
C       4.88080000     1.58330000     0.38660000
N       4.90820000     0.17100000     0.79430000
C       6.09730000    -0.53940000     0.29260000
C       7.40130000    -0.07960000     0.95980000
O       7.33910000    -0.29290000     2.34240000
H      -1.41770000     2.55270000     1.65930000
H       0.86070000     3.02220000     0.96760000
H      -3.01660000    -0.62890000     1.71230000
H      -3.67080000     2.19120000     1.68730000
H      -4.81530000     0.81570000     1.61470000
H      -4.44010000     0.60150000    -0.87080000
H      -3.26290000     1.94080000    -0.80790000
H      -5.07920000     3.35960000     0.10870000
H      -6.72530000     1.02130000    -0.77150000
H      -6.73460000     1.84980000     0.83410000
H      -7.55390000     3.93960000    -0.23960000
H      -8.66290000     2.54000000    -0.53050000
H      -8.26890000     3.74190000    -2.41800000
H      -0.76010000    -6.15340000    -1.58430000
H       1.63280000    -5.82650000    -1.99910000
H       3.56910000    -4.36490000    -2.00360000
H      -2.89870000    -5.24310000    -0.87910000
H       2.78730000     1.29970000    -1.33270000
H       3.15420000     2.05040000     1.60590000
H       3.46070000     3.21780000     0.26430000
H       5.57070000     2.18060000     1.02260000
H       5.19270000     1.69810000    -0.67600000
H       4.87560000     0.11230000     1.83890000
H       6.18080000    -0.42080000    -0.81030000
H       5.96500000    -1.62680000     0.48650000
H       7.59140000     0.99500000     0.74160000
H       8.24430000    -0.67000000     0.53450000
H       8.18480000     0.07020000     2.71470000
