44
8AOJ-13th charge=0 mult=1 PIC50=4.949999402
C      -5.53220000     2.66100000    -1.04650000
C      -6.43900000     1.60180000    -1.01950000
C      -6.02000000     0.33270000    -0.61550000
C      -4.68260000     0.11070000    -0.23690000
C      -3.76750000     1.17950000    -0.26130000
C      -4.20360000     2.45470000    -0.66950000
C      -2.36150000     0.95620000     0.14430000
O      -1.55800000     1.92780000     0.11650000
C      -1.88990000    -0.40960000     0.52590000
C      -0.55080000    -0.64620000     0.93710000
C      -0.12190000    -1.95340000     1.19040000
C      -0.97940000    -3.02900000     1.00370000
C      -2.29650000    -2.82710000     0.59500000
C      -2.79000000    -1.50530000     0.42470000
C      -4.23780000    -1.22750000     0.20520000
O      -5.10610000    -2.10000000     0.47720000
O      -3.06260000    -3.96620000     0.33630000
N       0.36160000     0.43560000     1.18450000
C       1.68700000     0.50280000     0.62810000
C       2.63930000     1.34960000     1.21440000
C       3.92890000     1.44260000     0.68340000
C       4.28070000     0.70360000    -0.45630000
C       3.33030000    -0.14310000    -1.04670000
C       2.04080000    -0.23640000    -0.51560000
C       5.67920000     0.77750000    -1.00820000
C       6.57240000    -0.28220000    -0.36000000
O       7.87860000    -0.18630000    -0.85890000
H      -5.85930000     3.64430000    -1.35940000
H      -7.46850000     1.76420000    -1.31160000
H      -6.74090000    -0.47530000    -0.60360000
H      -3.51910000     3.29320000    -0.69730000
H       0.89090000    -2.13870000     1.52610000
H      -0.61180000    -4.03510000     1.16300000
H      -3.90280000    -3.96090000    -0.22490000
H       0.06680000     1.17120000     1.86620000
H       2.38440000     1.93160000     2.09120000
H       4.65350000     2.09060000     1.16100000
H       3.58720000    -0.72860000    -1.92090000
H       1.32040000    -0.87840000    -1.00520000
H       6.10850000     1.78650000    -0.82280000
H       5.65980000     0.62410000    -2.10950000
H       6.60260000    -0.11950000     0.73880000
H       6.16190000    -1.30140000    -0.54620000
H       7.86690000    -0.59150000    -1.76520000
