29
8AOJ-14th charge=0 mult=1 PIC50=4.93621269
C       4.34420000    -0.80080000     0.26380000
C       2.99100000    -0.16060000     0.09570000
C       1.79850000    -0.90980000     0.24310000
C       0.53730000    -0.26370000     0.09470000
C       0.49770000     1.09540000    -0.29860000
C       1.69310000     1.81110000    -0.45420000
C       2.92100000     1.19620000    -0.24030000
C      -0.80080000     1.76700000    -0.55320000
O      -0.82840000     2.98720000    -0.87450000
C      -2.06450000     1.00710000    -0.44590000
C      -3.29310000     1.60190000    -0.78780000
C      -4.48290000     0.87940000    -0.67560000
C      -4.46030000    -0.43880000    -0.22000000
C      -3.24780000    -1.03970000     0.12540000
C      -2.04080000    -0.32460000     0.01310000
C      -0.75410000    -0.95120000     0.39480000
O      -0.77020000    -2.03530000     1.03820000
N       1.87870000    -2.32520000     0.47750000
H       4.46590000    -1.15040000     1.31040000
H       4.44420000    -1.66180000    -0.43030000
H       5.16810000    -0.08910000     0.04250000
H       1.68110000     2.85540000    -0.74090000
H       3.82460000     1.78100000    -0.36270000
H      -3.33460000     2.62400000    -1.14280000
H      -5.42410000     1.34300000    -0.94160000
H      -5.38410000    -0.99620000    -0.13310000
H      -3.25450000    -2.06400000     0.47640000
H       1.18580000    -2.97950000     0.05300000
H       2.70900000    -2.75790000     0.93790000
