30
8AOJ-15th charge=0 mult=1 PIC50=4.93621269
C      -3.73150000    -2.49880000    -0.12630000
O      -2.39700000    -2.00270000    -0.08440000
C      -2.04450000    -0.64780000     0.04610000
C      -0.67610000    -0.27740000     0.07440000
C      -0.31830000     1.09050000     0.22040000
C      -1.33930000     2.07830000     0.24240000
C      -2.68030000     1.68650000     0.23710000
C      -3.03090000     0.34560000     0.14940000
N      -1.04770000     3.48230000     0.20800000
C       1.12050000     1.44040000     0.40180000
O       1.45410000     2.55590000     0.88550000
C       2.17250000     0.44800000     0.09840000
C       3.52670000     0.82820000     0.05350000
C       4.51750000    -0.11810000    -0.21630000
C       4.16950000    -1.45040000    -0.43830000
C       2.82950000    -1.84100000    -0.39110000
C       1.82080000    -0.89610000    -0.12360000
C       0.40000000    -1.30430000    -0.05850000
O       0.11140000    -2.53040000    -0.12560000
H      -3.70380000    -3.60220000    -0.23580000
H      -4.27170000    -2.06950000    -0.99640000
H      -4.26170000    -2.24930000     0.81700000
H      -3.46490000     2.43250000     0.27070000
H      -4.08220000     0.09370000     0.13710000
H      -0.18010000     3.84990000    -0.23880000
H      -1.79100000     4.18040000     0.43460000
H       3.81920000     1.85710000     0.22240000
H       5.55680000     0.18210000    -0.25210000
H       4.93920000    -2.18240000    -0.64610000
H       2.58350000    -2.88100000    -0.56540000
