39
8AOJ-16th charge=0 mult=1 PIC50=4.88621369
C       3.90400000    -0.82440000     2.52140000
C       3.70430000    -1.00370000     1.15080000
C       3.38880000     0.08940000     0.33780000
C       3.26400000     1.37780000     0.89440000
C       3.47500000     1.54550000     2.27310000
C       3.79120000     0.44970000     3.08180000
N       2.93050000     2.52460000     0.09180000
S       2.35450000     2.42810000    -1.54290000
O       1.91520000     3.79220000    -1.99420000
O       3.47250000     1.95480000    -2.42940000
C       0.97950000     1.33140000    -1.63660000
C       0.06880000     1.26010000    -0.57590000
C      -1.02160000     0.37340000    -0.62750000
C      -1.20050000    -0.44290000    -1.76460000
C      -0.28560000    -0.35620000    -2.82880000
C       0.79510000     0.52480000    -2.76390000
C      -2.34570000    -1.38130000    -1.82910000
O      -2.50630000    -2.11020000    -2.84670000
C      -3.30240000    -1.46580000    -0.70060000
C      -4.39260000    -2.35400000    -0.75060000
C      -5.29160000    -2.43060000     0.31530000
C      -5.11420000    -1.62470000     1.43990000
C      -4.03700000    -0.73830000     1.50390000
C      -3.12290000    -0.64990000     0.43780000
C      -1.97830000     0.28910000     0.50140000
O      -1.81730000     1.01740000     1.51940000
H       4.14840000    -1.67200000     3.14840000
H       3.79650000    -1.99090000     0.71680000
H       3.25110000    -0.08170000    -0.71980000
H       3.38770000     2.52650000     2.72310000
H       3.94800000     0.58870000     4.14370000
H       2.95050000     3.47270000     0.52990000
H       0.21610000     1.89270000     0.29050000
H      -0.40360000    -0.97140000    -3.71210000
H       1.48900000     0.57470000    -3.59320000
H      -4.55090000    -2.98950000    -1.61290000
H      -6.12770000    -3.11650000     0.26900000
H      -5.81290000    -1.68670000     2.26420000
H      -3.91980000    -0.12300000     2.38710000
