27
8AOJ-17th charge=0 mult=1 PIC50=4.83621269
C       4.22210000    -0.18580000    -0.37710000
C       3.87070000    -1.43560000     0.13290000
C       2.52730000    -1.75310000     0.34390000
C       1.51840000    -0.81700000     0.04860000
C       1.87430000     0.44480000    -0.46740000
C       3.23160000     0.75130000    -0.67790000
C       0.81920000     1.42880000    -0.79020000
O       1.13010000     2.52750000    -1.32780000
C      -0.59960000     1.13340000    -0.47290000
C      -0.96340000    -0.10820000     0.10320000
C       0.09090000    -1.15520000     0.25680000
O      -0.22230000    -2.35070000     0.50650000
C      -2.32280000    -0.33480000     0.46530000
C      -3.29420000     0.65380000     0.18590000
C      -2.91890000     1.84470000    -0.43270000
C      -1.58710000     2.09220000    -0.74430000
O      -4.63740000     0.49790000     0.53620000
N      -2.71380000    -1.53380000     1.14760000
H       5.26410000     0.05740000    -0.54050000
H       4.64050000    -2.16030000     0.36450000
H       2.27870000    -2.72940000     0.74100000
H       3.52770000     1.71470000    -1.07350000
H      -3.66490000     2.60020000    -0.64580000
H      -1.33000000     3.04140000    -1.19770000
H      -4.99110000    -0.29330000     1.05640000
H      -2.12810000    -1.92690000     1.91670000
H      -3.62210000    -2.00400000     0.94240000
