29
8AOJ-18th charge=0 mult=1 PIC50=4.83621269
C       4.67090000     0.27040000    -0.08710000
C       4.42910000    -1.10140000    -0.01590000
C       3.11890000    -1.57830000     0.06310000
C       2.03310000    -0.68250000     0.06790000
C       2.27830000     0.70270000    -0.00310000
C       3.60340000     1.17050000    -0.07970000
C       1.14320000     1.64910000     0.01270000
O       1.36380000     2.89170000     0.03160000
C      -0.25160000     1.14320000    -0.00620000
C      -0.51220000    -0.24780000     0.00170000
C       0.64210000    -1.18330000     0.16650000
O       0.45130000    -2.39750000     0.44710000
C      -1.85920000    -0.70490000    -0.09250000
C      -2.92230000     0.23440000    -0.13390000
C      -2.63230000     1.60280000    -0.07590000
C      -1.31820000     2.05150000    -0.03000000
C      -4.34180000    -0.16860000    -0.28960000
O      -4.65070000    -1.23060000    -0.89390000
O      -5.35420000     0.65670000     0.19370000
N      -2.15010000    -2.10840000    -0.14250000
H       5.68740000     0.63740000    -0.14730000
H       5.25840000    -1.79700000    -0.02110000
H       2.95600000    -2.64750000     0.11700000
H       3.81490000     2.23100000    -0.13510000
H      -3.42780000     2.33740000    -0.11030000
H      -1.13770000     3.11930000    -0.02040000
H      -6.32900000     0.40510000     0.08100000
H      -1.60400000    -2.74670000    -0.76180000
H      -2.95960000    -2.50840000     0.38130000
