51
8AOJ-19th charge=0 mult=1 PIC50=4.83621269
C      -5.23950000    -3.20230000     1.12760000
C      -3.93850000    -3.70210000     1.08010000
C      -2.92340000    -2.95390000     0.48030000
C      -3.20090000    -1.69210000    -0.08050000
C      -4.51710000    -1.18950000    -0.03370000
C      -5.53150000    -1.95380000     0.57290000
C      -4.82090000     0.13540000    -0.61720000
O      -5.99970000     0.58840000    -0.56650000
C      -3.74840000     0.93140000    -1.26270000
C      -2.42280000     0.42950000    -1.34020000
C      -2.12110000    -0.89210000    -0.70760000
O      -0.94050000    -1.33600000    -0.67280000
C      -1.42100000     1.21830000    -1.97950000
C      -1.76260000     2.47710000    -2.50220000
C      -3.06400000     2.96010000    -2.40730000
C      -4.05130000     2.19480000    -1.79700000
N      -0.07460000     0.73740000    -2.14860000
C       1.09030000     1.62370000    -2.09250000
C       2.29300000     0.91080000    -1.46420000
C       2.06880000     0.61580000     0.02420000
N       3.26790000    -0.03970000     0.59470000
C       2.92430000    -1.15740000     1.51020000
C       2.17700000    -0.72980000     2.79260000
O       3.07480000    -0.31940000     3.78880000
C       4.21730000     0.94580000     1.16310000
C       5.62480000     0.35390000     1.30930000
O       6.54090000     1.36580000     1.63220000
H      -6.02520000    -3.78310000     1.59330000
H      -3.71580000    -4.67050000     1.50890000
H      -1.92320000    -3.36390000     0.45540000
H      -6.55060000    -1.58680000     0.61970000
H      -1.02170000     3.08170000    -3.00990000
H      -3.31100000     3.93020000    -2.81870000
H      -5.05600000     2.59560000    -1.74160000
H       0.05980000    -0.21550000    -2.55550000
H       0.85900000     2.53670000    -1.50120000
H       1.35290000     1.93740000    -3.12560000
H       2.49080000    -0.03940000    -2.00750000
H       3.18600000     1.56040000    -1.58430000
H       1.17580000    -0.04030000     0.10810000
H       1.82690000     1.55780000     0.56990000
H       3.83740000    -1.73120000     1.77730000
H       2.28870000    -1.88700000     0.95950000
H       1.46500000     0.09540000     2.58650000
H       1.57220000    -1.58870000     3.16540000
H       3.49000000    -1.14240000     4.15420000
H       3.86150000     1.34250000     2.13660000
H       4.30030000     1.82070000     0.48100000
H       5.64020000    -0.39340000     2.12880000
H       5.92380000    -0.15820000     0.36540000
H       6.77180000     1.82180000     0.78210000
