26
8AOJ-1st charge=0 mult=1 PIC50=4.786214046
C       3.74490000    -0.81390000    -0.06890000
C       2.57020000    -1.53650000    -0.26690000
C       1.31890000    -0.92720000    -0.07280000
C       1.25150000     0.42390000     0.33900000
C       2.45430000     1.16660000     0.47500000
C       3.68640000     0.52960000     0.29470000
O       2.47050000     2.53560000     0.75110000
C      -0.08070000     0.98960000     0.67580000
O      -0.17400000     1.90270000     1.53880000
C      -1.31060000     0.35250000     0.13750000
C      -1.23790000    -0.99840000    -0.27390000
C       0.07100000    -1.69250000    -0.30310000
O       0.12480000    -2.92910000    -0.54920000
C      -2.40790000    -1.67520000    -0.65850000
C      -3.63730000    -1.01960000    -0.64960000
C      -3.71080000     0.32350000    -0.28720000
C      -2.55910000     1.02690000     0.08070000
O      -2.69390000     2.39180000     0.34500000
H       4.70480000    -1.29190000    -0.21730000
H       2.64130000    -2.57270000    -0.57300000
H       4.60590000     1.08900000     0.41350000
H       1.65390000     3.12780000     0.68850000
H      -2.37290000    -2.71240000    -0.96750000
H      -4.53430000    -1.54920000    -0.94400000
H      -4.66710000     0.83060000    -0.31590000
H      -1.91170000     3.02840000     0.40820000
