29
8AOJ-20th charge=0 mult=1 PIC50=4.786214046
C      -4.22690000     0.66050000     0.88420000
C      -2.95480000     0.94630000     1.37490000
C      -1.80880000     0.48860000     0.70000000
C      -1.94820000    -0.26770000    -0.48610000
C      -3.24840000    -0.55110000    -0.97420000
C      -4.37400000    -0.08360000    -0.28320000
O      -3.42920000    -1.29420000    -2.14110000
C      -0.72730000    -0.74730000    -1.19260000
O      -0.84310000    -1.42230000    -2.25110000
C       0.62920000    -0.43600000    -0.65900000
C       0.74980000     0.32070000     0.52710000
C      -0.46250000     0.79870000     1.23130000
O      -0.34780000     1.47470000     2.29110000
C       2.02480000     0.62060000     1.04000000
C       3.18570000     0.17900000     0.39080000
C       3.06270000    -0.57170000    -0.78600000
C       1.80250000    -0.88110000    -1.31320000
O       1.72520000    -1.63120000    -2.48740000
C       4.52090000     0.50270000     0.94300000
O       5.56660000     0.10640000     0.36030000
O       4.63540000     1.24920000     2.11300000
H      -5.10240000     1.01750000     1.41120000
H      -2.86880000     1.52700000     2.28490000
H      -5.36850000    -0.29830000    -0.65330000
H      -4.35250000    -1.50470000    -2.50220000
H       2.11320000     1.20130000     1.95000000
H       3.94810000    -0.92200000    -1.30220000
H       2.55500000    -1.95800000    -2.96880000
H       5.54430000     1.47590000     2.49890000
