29
8AOJ-2nd charge=0 mult=1 PIC50=4.786214046
C       4.73580000     0.43230000    -0.09730000
C       3.30100000    -0.00160000    -0.16660000
C       2.27770000     0.95110000    -0.18190000
C       0.92940000     0.55580000    -0.22200000
C       0.59850000    -0.81930000    -0.24680000
C       1.64040000    -1.77880000    -0.12980000
C       2.97420000    -1.35970000    -0.11880000
O       1.40100000    -3.14720000     0.01670000
C      -0.82720000    -1.20160000    -0.44870000
O      -1.11970000    -2.34710000    -0.88440000
C      -1.90530000    -0.19810000    -0.24860000
C      -1.56290000     1.16860000    -0.15670000
C      -0.14270000     1.57960000    -0.22490000
O       0.15540000     2.80520000    -0.26780000
C      -2.57510000     2.13260000    -0.00450000
C      -3.91310000     1.74730000     0.06320000
C      -4.25780000     0.39970000    -0.01790000
C      -3.26600000    -0.57820000    -0.17170000
O      -3.63530000    -1.92190000    -0.23770000
H       5.03110000     0.56310000     0.96470000
H       5.39820000    -0.32590000    -0.56700000
H       4.88060000     1.39340000    -0.63510000
H       2.53700000     2.00300000    -0.16550000
H       3.76070000    -2.10130000    -0.04370000
H       0.50750000    -3.53500000     0.28460000
H      -2.33240000     3.18550000     0.06610000
H      -4.68570000     2.49610000     0.18230000
H      -5.30040000     0.11380000     0.04110000
H      -4.60480000    -2.21170000    -0.18120000
