26
8AOJ-3rd charge=0 mult=1 PIC50=4.736212487
C      -4.19030000    -0.29800000     0.54890000
C      -3.94970000    -1.30660000    -0.38420000
C      -2.65000000    -1.55100000    -0.83240000
C      -1.57360000    -0.78450000    -0.34870000
C      -1.81720000     0.23650000     0.59580000
C      -3.13230000     0.47100000     1.03800000
C      -0.69130000     1.05000000     1.11210000
O      -0.90890000     1.96240000     1.95620000
C       0.68980000     0.79390000     0.63900000
C       0.93360000    -0.22650000    -0.30500000
C      -0.19260000    -1.04030000    -0.82160000
O       0.02470000    -1.95280000    -1.66570000
C       2.24840000    -0.46140000    -0.74770000
C       3.31310000     0.30740000    -0.25990000
C       3.06520000     1.31750000     0.67590000
C       1.76500000     1.56010000     1.12270000
N       4.64640000     0.06150000    -0.71550000
H      -5.19910000    -0.11130000     0.89410000
H      -4.77220000    -1.90070000    -0.76120000
H      -2.48780000    -2.33920000    -1.55690000
H      -3.34360000     1.24820000     1.76170000
H       2.44980000    -1.24130000    -1.47190000
H       3.88050000     1.91790000     1.05980000
H       1.60190000     2.34810000     1.84720000
H       4.84330000    -0.68990000    -1.41370000
H       5.44690000     0.62910000    -0.35780000
