28
8AOJ-4th charge=0 mult=1 PIC50=4.6862129
C      -2.10670000    -1.66100000    -1.02050000
C      -3.39330000    -1.31420000    -0.61360000
C      -3.60940000    -0.15850000     0.13850000
C      -2.52820000     0.67440000     0.48060000
C      -1.22440000     0.35520000     0.01980000
C      -1.01620000    -0.83820000    -0.70100000
C       0.35200000    -1.20110000    -1.13390000
O       0.50520000    -2.02300000    -2.07710000
C       1.52430000    -0.53320000    -0.50160000
C       2.83830000    -1.06710000    -0.57540000
C       3.91380000    -0.32880000    -0.07990000
C       3.70440000     0.88010000     0.57450000
C       2.41420000     1.38070000     0.74790000
C       1.31230000     0.70030000     0.16930000
C      -0.06450000     1.26140000     0.19950000
O      -0.24020000     2.50900000     0.22160000
O       2.27030000     2.53240000     1.52530000
O       3.12000000    -2.33190000    -1.09740000
O      -2.77620000     1.77950000     1.29930000
O      -4.90860000     0.14100000     0.54920000
H      -1.96380000    -2.57470000    -1.58410000
H      -4.22670000    -1.95600000    -0.87010000
H       4.91970000    -0.72200000    -0.15870000
H       4.55000000     1.41070000     0.99420000
H       1.38510000     2.85280000     1.89270000
H       2.42260000    -3.04710000    -1.24650000
H      -2.04730000     2.31400000     1.75170000
H      -5.12680000     0.96520000     1.09590000
