26
8AOJ-5th charge=0 mult=1 PIC50=4.6862129
C      -4.04380000    -0.57530000     0.33700000
C      -3.92610000     0.81450000     0.30890000
C      -2.67340000     1.40800000     0.13880000
C      -1.52120000     0.61200000    -0.00040000
C      -1.64080000    -0.79170000     0.02650000
C      -2.90920000    -1.37710000     0.19520000
C      -0.43490000    -1.63230000    -0.13400000
O      -0.55010000    -2.88670000    -0.21290000
C       0.90870000    -1.00530000    -0.18610000
C       1.04380000     0.40400000    -0.13540000
C      -0.19280000     1.23550000    -0.20120000
O      -0.13150000     2.45590000    -0.50990000
C       2.34930000     0.96980000    -0.07800000
C       3.47690000     0.13790000    -0.20140000
C       3.32170000    -1.24240000    -0.30970000
C       2.05330000    -1.81320000    -0.27910000
O       4.76800000     0.66710000    -0.19930000
O       2.56860000     2.33340000     0.13700000
H      -5.01610000    -1.03250000     0.46780000
H      -4.80730000     1.43350000     0.41800000
H      -2.60560000     2.48860000     0.12020000
H      -3.02430000    -2.45350000     0.21890000
H       4.19320000    -1.87950000    -0.39360000
H       1.96900000    -2.89140000    -0.33410000
H       4.94640000     1.66130000    -0.12450000
H       1.87840000     2.95950000     0.52670000
