29
8AOJ-6th charge=0 mult=1 PIC50=4.6862129
C      -3.77710000    -1.93630000     0.52730000
N      -2.62560000    -1.39810000    -0.18900000
C      -2.08910000    -0.09030000     0.08000000
C      -2.97290000     0.98220000     0.28860000
C      -2.49480000     2.27990000     0.44150000
C      -1.12930000     2.53500000     0.37240000
C      -0.21580000     1.48570000     0.17780000
C      -0.68620000     0.15370000     0.06370000
C       0.31570000    -0.95020000    -0.01180000
O      -0.03490000    -2.14830000     0.16590000
C       1.75000000    -0.64510000    -0.22250000
C       2.67580000    -1.67930000    -0.45580000
C       4.02940000    -1.38880000    -0.63920000
C       4.47440000    -0.06780000    -0.58840000
C       3.56750000     0.96790000    -0.35410000
C       2.20050000     0.68910000    -0.17020000
C       1.23520000     1.77970000     0.08580000
O       1.64830000     2.96520000     0.21530000
H      -3.61940000    -1.83990000     1.62220000
H      -4.70030000    -1.39770000     0.23050000
H      -3.90500000    -3.01090000     0.27850000
H      -2.17480000    -2.00170000    -0.91230000
H      -4.04250000     0.82360000     0.30010000
H      -3.18930000     3.09670000     0.59070000
H      -0.78790000     3.55790000     0.47130000
H       2.35370000    -2.71220000    -0.49990000
H       4.73460000    -2.18970000    -0.82030000
H       5.52420000     0.15430000    -0.73010000
H       3.93570000     1.98550000    -0.31810000
