36
8AOJ-7th charge=0 mult=1 PIC50=4.636213209
C      -4.08210000     1.09120000     0.35850000
C      -3.68650000     1.55660000    -1.04300000
C      -2.60640000     0.59240000    -1.51290000
N      -2.11510000    -0.04560000    -0.30750000
C      -2.92270000     0.24010000     0.86310000
C      -1.11520000    -1.07020000    -0.32860000
C      -1.52780000    -2.39610000    -0.50720000
C      -0.59510000    -3.42780000    -0.54930000
C       0.76240000    -3.14800000    -0.41570000
C       1.20620000    -1.82600000    -0.23400000
C       0.26530000    -0.76810000    -0.18440000
C       0.75550000     0.62590000     0.02410000
O      -0.05830000     1.58540000     0.10690000
C       2.20710000     0.90070000     0.14540000
C       2.67370000     2.21740000     0.32170000
C       4.04130000     2.47450000     0.43770000
C       4.95750000     1.42480000     0.37990000
C       4.50990000     0.11380000     0.20590000
C       3.13440000    -0.15980000     0.08720000
C       2.65590000    -1.54710000    -0.09650000
O       3.48660000    -2.49640000    -0.13780000
H      -5.00210000     0.46920000     0.29610000
H      -4.27170000     1.95550000     1.03130000
H      -4.55880000     1.55500000    -1.73210000
H      -3.26700000     2.58530000    -0.98630000
H      -3.03780000    -0.17430000    -2.19270000
H      -1.78570000     1.13600000    -2.02870000
H      -3.29820000    -0.70230000     1.31810000
H      -2.31640000     0.80100000     1.60630000
H      -2.58030000    -2.62600000    -0.61760000
H      -0.92560000    -4.44900000    -0.68900000
H       1.46640000    -3.96980000    -0.45510000
H       1.98260000     3.04950000     0.36960000
H       4.39110000     3.48980000     0.57270000
H       6.01700000     1.62700000     0.47020000
H       5.24000000    -0.68470000     0.16410000
