30
8AOJ-8th charge=0 mult=1 PIC50=4.636213209
C      -4.72390000     0.29210000     0.02780000
C      -3.94480000    -0.88840000    -0.54240000
C      -2.49640000    -0.52700000    -0.73720000
C      -1.57720000    -0.70080000     0.30810000
C      -0.22810000    -0.33640000     0.14540000
C       0.19960000     0.21810000    -1.07950000
C      -0.73020000     0.40200000    -2.11770000
C      -2.06640000     0.03720000    -1.94530000
C       1.61850000     0.60590000    -1.26130000
O       2.00090000     1.10070000    -2.35740000
C       2.58920000     0.41370000    -0.15830000
C       3.93870000     0.77840000    -0.31990000
C       4.85000000     0.59580000     0.72240000
C       4.42730000     0.04910000     1.93400000
C       3.09120000    -0.31760000     2.10920000
C       2.16130000    -0.13970000     1.06820000
C       0.74260000    -0.52750000     1.24940000
O       0.36050000    -1.02170000     2.34590000
H      -5.78790000     0.00510000     0.16330000
H      -4.30700000     0.58870000     1.01410000
H      -4.67450000     1.15800000    -0.66660000
H      -4.39750000    -1.19250000    -1.51140000
H      -4.03330000    -1.75460000     0.14900000
H      -1.91830000    -1.11910000     1.24760000
H      -0.42590000     0.83160000    -3.06390000
H      -2.76770000     0.19590000    -2.75530000
H       4.29010000     1.20460000    -1.25110000
H       5.88630000     0.87890000     0.59010000
H       5.13630000    -0.09100000     2.73980000
H       2.78660000    -0.73990000     3.05850000
