30
8AOJ-9th charge=0 mult=1 PIC50=4.586214232
C      -4.85660000    -0.00170000    -0.63060000
C      -3.42480000     0.28090000    -0.28110000
C      -2.43400000    -0.67030000    -0.54710000
C      -1.09740000    -0.43320000    -0.18400000
C      -0.75070000     0.76430000     0.48100000
C      -1.75130000     1.74460000     0.70710000
C      -3.07780000     1.47770000     0.35440000
O      -1.46890000     3.00210000     1.24560000
C       0.64140000     0.91260000     0.97950000
O       0.86920000     1.60510000     2.00710000
C       1.72990000     0.09630000     0.38240000
C       1.37860000    -1.10080000    -0.28160000
C      -0.04920000    -1.43320000    -0.49810000
O      -0.37060000    -2.55710000    -0.97390000
C       2.38550000    -1.96820000    -0.73800000
C       3.73110000    -1.65110000    -0.55520000
C       4.08390000    -0.44950000     0.06450000
C       3.10110000     0.44030000     0.50970000
O       3.52800000     1.66140000     1.03660000
O       4.71200000    -2.53250000    -1.00470000
H      -4.92020000    -0.63910000    -1.53820000
H      -5.40540000     0.94190000    -0.83660000
H      -5.34580000    -0.52730000     0.21590000
H      -2.70810000    -1.59560000    -1.03970000
H      -3.83850000     2.22260000     0.55580000
H      -0.53390000     3.37570000     1.33240000
H       2.13030000    -2.89410000    -1.23880000
H       5.12940000    -0.19140000     0.17960000
H       2.91420000     2.45010000     1.18700000
H       5.69850000    -2.33060000    -0.89090000
