41
8AOJ-cocrys charge=0 mult=1 PIC50=4.536212986
C       1.57970000     1.29010000     3.22970000
C       0.91200000     0.55610000     2.06860000
C       1.84270000    -0.42470000     1.39740000
O       2.73700000    -0.99520000     2.08090000
N       1.68880000    -0.77740000     0.00730000
C       2.70220000    -1.53070000    -0.71220000
C       2.32410000    -1.44500000    -2.18530000
C       0.88120000    -0.94770000    -2.23070000
C       0.60440000    -0.32810000    -0.85820000
C      -0.75060000    -0.74320000    -0.32000000
C      -1.12600000    -1.97640000     0.19780000
C      -0.28030000    -3.20430000     0.32690000
N      -2.37310000    -1.87750000     0.69180000
N      -2.82950000    -0.65040000     0.50670000
C      -1.87030000     0.06050000    -0.12020000
C      -2.02920000     1.48630000    -0.46640000
C      -1.61650000     1.97980000    -1.71310000
C      -1.79580000     3.33250000    -2.01210000
N      -2.37880000     4.16030000    -1.10510000
C      -2.80400000     3.70570000     0.10340000
C      -2.64450000     2.35980000     0.44170000
H       2.48670000     1.82530000     2.87600000
H       1.86120000     0.57470000     4.03160000
H       0.87190000     2.03270000     3.65480000
H       0.57050000     1.31910000     1.33910000
H       0.02230000     0.00890000     2.44630000
H       3.70740000    -1.08540000    -0.54560000
H       2.69950000    -2.58660000    -0.36610000
H       2.42510000    -2.43360000    -2.68370000
H       2.98530000    -0.71190000    -2.69790000
H       0.74980000    -0.19730000    -3.04040000
H       0.20470000    -1.80560000    -2.44000000
H       0.67010000     0.77660000    -0.94400000
H       0.43600000    -3.07780000     1.16450000
H      -0.92000000    -4.08750000     0.53390000
H       0.27600000    -3.39130000    -0.61340000
H      -2.91040000    -2.63400000     1.17060000
H      -1.17980000     1.32430000    -2.45480000
H      -1.47790000     3.72280000    -2.96960000
H      -3.26740000     4.38930000     0.80210000
H      -2.98450000     2.00650000     1.40760000
