59
CHEMBL10041 charge=1 mult=1 PIC50=4.450000476
C      -1.80320000     1.62110000    -0.53450000
C      -1.24000000     2.90000000    -0.51060000
C      -1.08100000     3.57580000     0.70650000
O      -0.51660000     4.84880000     0.74360000
C      -1.49210000     2.96760000     1.89690000
C      -2.05460000     1.68780000     1.87610000
C      -2.20650000     1.00120000     0.66060000
C      -2.78270000    -0.36830000     0.63730000
C      -4.20590000    -0.52260000     1.14320000
C      -5.20900000     0.05530000     0.14870000
C      -2.07160000    -1.41620000     0.13460000
C      -2.67210000    -2.75690000    -0.03000000
C      -3.57370000    -3.00960000    -1.07580000
C      -4.12710000    -4.28400000    -1.23260000
C      -3.77660000    -5.31280000    -0.35340000
C      -2.86750000    -5.07010000     0.68050000
C      -2.31180000    -3.79690000     0.84030000
C      -0.63920000    -1.28380000    -0.23430000
C      -0.20700000    -1.64870000    -1.51800000
C       1.13480000    -1.50030000    -1.87920000
C       2.06650000    -0.99080000    -0.96730000
C       1.63990000    -0.65560000     0.33250000
C       0.29960000    -0.80770000     0.69520000
O       3.39640000    -0.83770000    -1.39350000
C       4.43820000    -0.21000000    -0.64500000
C       4.26160000     1.31970000    -0.64720000
N       5.14660000     1.99370000     0.33230000
C       6.56270000     1.92340000    -0.07470000
C       4.74510000     3.40400000     0.48130000
H      -1.92260000     1.11150000    -1.48280000
H      -0.92710000     3.36390000    -1.43720000
H      -0.20740000     5.31550000    -0.10110000
H      -1.37000000     3.48500000     2.83990000
H      -2.34920000     1.22490000     2.80940000
H      -4.31750000     0.01490000     2.10840000
H      -4.46670000    -1.58070000     1.35350000
H      -5.03000000     1.14240000     0.00680000
H      -5.12770000    -0.45650000    -0.83170000
H      -6.23970000    -0.08470000     0.53710000
H      -3.83470000    -2.22630000    -1.77550000
H      -4.82320000    -4.47550000    -2.03890000
H      -4.20500000    -6.29910000    -0.47660000
H      -2.59240000    -5.86880000     1.35720000
H      -1.60730000    -3.61880000     1.64350000
H      -0.91250000    -2.02770000    -2.24700000
H       1.45090000    -1.77040000    -2.87880000
H       2.33040000    -0.27340000     1.07050000
H      -0.00770000    -0.55020000     1.70130000
H       5.40120000    -0.46500000    -1.13320000
H       4.47200000    -0.61780000     0.38750000
H       4.44440000     1.70670000    -1.67540000
H       3.19950000     1.54460000    -0.40460000
H       5.04350000     1.53340000     1.26790000
H       6.92820000     0.87540000    -0.04880000
H       7.20200000     2.49790000     0.63150000
H       6.70800000     2.33480000    -1.09830000
H       3.69560000     3.47470000     0.84340000
H       5.38470000     3.91560000     1.23400000
H       4.82690000     3.94720000    -0.48680000
