68
CHEMBL101083 charge=1 mult=1 PIC50=4.346787486
C       5.80780000    -2.41260000     0.39580000
C       6.62950000    -1.25340000     0.97970000
C       7.27220000    -0.40840000    -0.13460000
C       6.43760000    -0.38820000    -1.42780000
C       4.95160000    -0.61570000    -1.12900000
N       4.71820000    -1.94970000    -0.51320000
C       3.36390000    -2.05330000     0.08820000
C       3.18370000    -1.28790000     1.41820000
O       1.81930000    -1.33800000     1.83480000
C       0.77040000    -0.58870000     1.27640000
C       0.97680000     0.39930000     0.29680000
C      -0.10390000     1.10970000    -0.23260000
C      -0.52950000    -0.84280000     1.71930000
C      -1.61160000    -0.13630000     1.19200000
C      -1.42040000     0.85940000     0.21220000
C      -2.65680000     1.56290000    -0.38420000
C      -2.29930000     2.75470000    -1.30710000
N      -3.46060000     0.58710000    -1.16930000
C      -2.90290000    -0.63280000    -1.71080000
C      -1.81110000    -0.60070000    -2.59620000
C      -1.26030000    -1.79000000    -3.08220000
C      -1.79710000    -3.02050000    -2.69630000
F      -1.26120000    -4.17230000    -3.16960000
C      -2.88770000    -3.06290000    -1.82430000
C      -3.43950000    -1.87580000    -1.33420000
C      -4.88930000     0.84860000    -1.36520000
C      -5.57680000     0.90130000    -0.00970000
C      -4.86810000     1.84590000     0.92360000
C      -3.48710000     2.13470000     0.77810000
C      -5.58290000     2.38270000     2.00700000
C      -4.95500000     3.23010000     2.92590000
O      -5.66570000     3.76980000     3.99560000
C      -3.60400000     3.53760000     2.77290000
C      -2.87570000     2.99730000     1.71260000
H       6.50990000    -3.06930000    -0.16830000
H       5.41660000    -3.04600000     1.22180000
H       5.97060000    -0.60970000     1.59980000
H       7.42340000    -1.65640000     1.64510000
H       8.28390000    -0.80730000    -0.36670000
H       7.40320000     0.63110000     0.23800000
H       6.79300000    -1.18830000    -2.11360000
H       6.57230000     0.58640000    -1.94530000
H       4.37900000    -0.53430000    -2.08020000
H       4.60440000     0.20930000    -0.47440000
H       4.70860000    -2.62780000    -1.31370000
H       3.12660000    -3.12480000     0.27650000
H       2.60690000    -1.70210000    -0.64730000
H       3.78820000    -1.77600000     2.20890000
H       3.51840000    -0.23420000     1.36410000
H       1.96680000     0.62400000    -0.07310000
H       0.10610000     1.84080000    -0.99930000
H      -0.70450000    -1.60340000     2.46960000
H      -2.60890000    -0.37710000     1.53930000
H      -1.62480000     3.47330000    -0.79450000
H      -1.80820000     2.41740000    -2.23980000
H      -3.21510000     3.31050000    -1.60090000
H      -1.38320000     0.33680000    -2.91510000
H      -0.41740000    -1.75590000    -3.76040000
H      -3.30410000    -4.01540000    -1.52380000
H      -4.27360000    -1.92500000    -0.64730000
H      -5.36400000     0.06010000    -1.99010000
H      -5.02590000     1.81530000    -1.89530000
H      -6.63130000     1.22220000    -0.15790000
H      -5.58180000    -0.11240000     0.44510000
H      -6.63070000     2.14100000     2.13750000
H      -6.64820000     3.56500000     4.13620000
H      -3.11450000     4.19400000     3.48100000
H      -1.82610000     3.24730000     1.62380000
