60
CHEMBL1095097 charge=0 mult=1 PIC50=4.259637311
C       4.54680000     0.35650000     0.65900000
C       5.35790000    -0.33270000    -0.35350000
O       6.58330000    -0.06070000    -0.45760000
C       4.76040000    -1.39190000    -1.22200000
C       3.24900000    -1.18800000    -1.36690000
C       2.51780000    -0.98030000     0.00340000
C       2.55870000    -2.29690000     0.80940000
C       3.23100000     0.11640000     0.81320000
C       2.50940000     0.81680000     1.95140000
C       1.08400000     1.26070000     1.57370000
C       1.08850000     2.44560000     0.63510000
O       1.91330000     2.51030000    -0.31820000
O       0.13830000     3.45520000     0.81460000
C       0.02880000     4.56900000    -0.06240000
C       0.28020000     0.05620000     1.03440000
C      -1.19600000     0.38840000     0.71730000
C      -2.06510000     0.82390000     1.90030000
C      -3.49750000     0.39080000     1.54600000
C      -3.42080000    -0.30340000     0.16550000
C      -1.93980000    -0.79920000     0.08990000
C      -1.79100000    -2.11340000     0.92790000
C      -1.35140000    -1.06850000    -1.31800000
C       0.18930000    -1.19400000    -1.29370000
C       1.01030000    -0.58060000    -0.18320000
O       0.76130000     0.09850000    -1.39230000
C      -3.86910000     0.65740000    -0.98510000
C      -4.65120000    -0.21840000    -1.96900000
C      -4.99380000    -1.38500000    -1.13050000
O      -5.79460000    -2.29240000    -1.47530000
O      -4.33240000    -1.39010000     0.07840000
H       5.04390000     1.08640000     1.28750000
H       4.97940000    -2.38990000    -0.78820000
H       5.22860000    -1.35330000    -2.22950000
H       2.84590000    -2.07280000    -1.90210000
H       3.09590000    -0.29790000    -2.01600000
H       3.60100000    -2.59110000     1.05100000
H       2.08220000    -3.11940000     0.23400000
H       2.02080000    -2.19630000     1.77460000
H       3.07450000     1.70880000     2.30420000
H       2.45620000     0.11430000     2.81130000
H       0.59960000     1.59710000     2.51720000
H       0.97660000     5.14770000    -0.06260000
H      -0.79460000     5.22620000     0.28460000
H      -0.19910000     4.21980000    -1.09190000
H       0.27660000    -0.69480000     1.85210000
H      -1.20570000     1.22810000    -0.01460000
H      -1.73790000     0.32590000     2.83930000
H      -2.00850000     1.92520000     2.04170000
H      -3.86280000    -0.32920000     2.31100000
H      -4.18620000     1.26230000     1.56350000
H      -2.42730000    -2.91950000     0.50540000
H      -0.75340000    -2.50530000     0.91330000
H      -2.08310000    -1.96740000     1.98810000
H      -1.60540000    -0.27630000    -2.04680000
H      -1.78110000    -2.00910000    -1.72520000
H       0.65290000    -1.86650000    -2.04050000
H      -3.04670000     1.21510000    -1.47440000
H      -4.57560000     1.42560000    -0.60210000
H      -4.00720000    -0.53810000    -2.81540000
H      -5.56500000     0.29380000    -2.33980000
