71
CHEMBL178559 charge=1 mult=1 PIC50=9.721
C       6.45710000     1.41760000     0.05860000
C       7.53110000     0.91030000    -0.92770000
C       6.96420000     0.62520000    -2.32810000
C       5.82250000     1.58550000    -2.66430000
C       4.68460000     1.51610000    -1.61660000
N       5.10870000     0.93230000    -0.31530000
C       4.10740000     1.25960000     0.73120000
C       4.21670000     0.33550000     1.96200000
O       3.03750000     0.41580000     2.76520000
C       1.78930000    -0.13590000     2.42870000
C       1.59010000    -0.92050000     1.27640000
C       0.31590000    -1.39000000     0.95190000
C       0.70370000     0.11740000     3.27340000
C      -0.56950000    -0.36520000     2.95980000
C      -0.78440000    -1.10320000     1.78170000
C      -2.19660000    -1.51160000     1.40020000
O      -2.18920000    -2.43880000     0.30630000
C      -3.19120000    -2.51020000    -0.66800000
C      -4.29720000    -1.64030000    -0.63020000
C      -3.04810000    -3.41510000    -1.72580000
C      -3.98630000    -3.44210000    -2.76080000
C      -5.07420000    -2.56120000    -2.74620000
C      -5.22920000    -1.66180000    -1.68160000
O      -5.99430000    -2.58690000    -3.79160000
C      -3.10670000    -0.27680000     1.11820000
C      -4.48550000    -0.71190000     0.54910000
C      -5.35580000    -1.38400000     1.64190000
C      -6.82210000    -1.51540000     1.23470000
C      -2.47900000     0.81050000     0.24560000
C      -1.71660000     0.52090000    -0.90340000
C      -1.20780000     1.55450000    -1.69700000
C      -1.47000000     2.88910000    -1.37330000
O      -0.97170000     3.90800000    -2.18220000
C      -2.23900000     3.18900000    -0.24460000
C      -2.74200000     2.15950000     0.55490000
H       6.46900000     2.53190000     0.07200000
H       6.73940000     1.07170000     1.07720000
H       7.98910000    -0.02270000    -0.53300000
H       8.33880000     1.67000000    -1.00480000
H       7.77080000     0.72460000    -3.08650000
H       6.58540000    -0.41990000    -2.37560000
H       6.22720000     2.62060000    -2.70690000
H       5.42400000     1.34430000    -3.67270000
H       4.28250000     2.54670000    -1.47360000
H       3.85450000     0.90290000    -2.03700000
H       5.14130000    -0.11060000    -0.42460000
H       4.20820000     2.31990000     1.05780000
H       3.08240000     1.16160000     0.30850000
H       5.07380000     0.66040000     2.58670000
H       4.40310000    -0.72010000     1.67190000
H       2.40640000    -1.15550000     0.60920000
H       0.19480000    -1.95770000     0.03960000
H       0.84440000     0.70980000     4.16860000
H      -1.39510000    -0.13660000     3.62320000
H      -2.62330000    -2.05240000     2.27290000
H      -2.19150000    -4.07940000    -1.75750000
H      -3.86250000    -4.14080000    -3.58150000
H      -6.07540000    -0.98520000    -1.67310000
H      -6.79740000    -1.96770000    -3.80520000
H      -3.29280000     0.19150000     2.11140000
H      -5.01690000     0.20640000     0.21030000
H      -4.95980000    -2.39350000     1.88530000
H      -5.32400000    -0.77560000     2.57380000
H      -7.41180000    -1.88700000     2.09970000
H      -6.93610000    -2.24340000     0.40300000
H      -7.23120000    -0.52970000     0.92600000
H      -1.50410000    -0.49580000    -1.19550000
H      -0.61900000     1.31690000    -2.57250000
H      -1.16180000     4.88270000    -1.98240000
H      -2.45670000     4.21900000     0.00990000
H      -3.34850000     2.41670000     1.41260000
