62
CHEMBL178857 charge=0 mult=1 PIC50=9.585
C      -3.03520000    -2.76020000    -0.12860000
C      -3.11640000    -4.05960000    -0.65670000
C      -4.12770000    -4.39720000    -1.58060000
O      -4.21220000    -5.68620000    -2.09940000
C      -5.06450000    -3.43190000    -1.97700000
C      -4.96230000    -2.15000000    -1.44240000
C      -3.96530000    -1.79620000    -0.54340000
S      -5.97080000    -0.84050000    -1.71480000
C      -5.14240000     0.22110000    -0.68840000
C      -5.51550000     1.63980000    -0.49940000
C      -4.53350000     2.64470000    -0.47140000
C      -4.89910000     3.98510000    -0.31880000
C      -6.24610000     4.33850000    -0.20220000
O      -6.59610000     5.67800000    -0.05170000
C      -7.23090000     3.34340000    -0.24060000
C      -6.86870000     2.00230000    -0.39510000
C      -4.05110000    -0.45460000    -0.11430000
C      -3.15810000     0.14460000     0.90040000
O      -3.67550000     0.67400000     1.92180000
C      -1.68370000     0.15700000     0.73700000
C      -1.09530000     0.03120000    -0.53380000
C       0.29470000     0.04890000    -0.67720000
C       1.12650000     0.19360000     0.44510000
C       0.53880000     0.32460000     1.71420000
C      -0.85150000     0.31420000     1.85770000
N       2.56120000     0.20420000     0.29860000
C       3.18130000     0.88350000    -0.84810000
C       4.51870000     1.50990000    -0.43680000
C       3.38720000    -0.59480000     1.21710000
C       4.81880000    -0.74830000     0.69650000
N       5.35670000     0.56160000     0.31070000
C       6.67160000     0.97530000     0.72750000
O       6.86120000     2.16980000     1.08160000
C       7.81630000     0.04770000     0.74390000
C       7.91780000    -1.15380000     0.06660000
C       9.16780000    -1.64570000     0.36910000
C       9.75430000    -0.71760000     1.20470000
O       8.92650000     0.28070000     1.40630000
H      -2.26420000    -2.52500000     0.59280000
H      -2.39980000    -4.80590000    -0.34210000
H      -3.55800000    -6.41060000    -1.82880000
H      -5.85480000    -3.67810000    -2.67440000
H      -3.48720000     2.39870000    -0.59170000
H      -4.13480000     4.75070000    -0.29980000
H      -7.56360000     5.96420000     0.04380000
H      -8.27670000     3.60940000    -0.15470000
H      -7.64450000     1.24720000    -0.42130000
H      -1.70820000    -0.07280000    -1.42000000
H       0.72230000    -0.06340000    -1.66510000
H       1.15390000     0.45180000     2.59480000
H      -1.27610000     0.41930000     2.84870000
H       3.34800000     0.14790000    -1.66410000
H       2.51760000     1.68860000    -1.23260000
H       4.31720000     2.40030000     0.19710000
H       5.05680000     1.84310000    -1.34920000
H       3.41920000    -0.09950000     2.21050000
H       2.94050000    -1.60670000     1.33990000
H       5.43860000    -1.21520000     1.49160000
H       4.81630000    -1.41930000    -0.18870000
H       7.18960000    -1.60960000    -0.58990000
H       9.60530000    -2.56760000     0.01350000
H      10.74490000    -0.78430000     1.63250000
