63
CHEMBL180792 charge=1 mult=1 PIC50=9.222
C      -6.21920000     0.83460000     0.04620000
C      -7.70820000     0.61410000     0.22280000
C      -8.04190000    -0.48520000    -0.75670000
C      -6.74530000    -1.26290000    -0.94110000
N      -5.63040000    -0.44020000    -0.41670000
C      -4.81640000    -1.16440000     0.60910000
C      -5.55490000    -1.38570000     1.94910000
C      -3.45920000    -0.47460000     0.86150000
O      -2.69440000    -0.44050000    -0.34200000
C      -1.40680000     0.10500000    -0.44940000
C      -0.72800000     0.66100000     0.64840000
C       0.55730000     1.18810000     0.49320000
C      -0.78350000     0.09530000    -1.69930000
C       0.50030000     0.62260000    -1.85810000
C       1.20510000     1.15350000    -0.76070000
C       2.59220000     1.74790000    -0.99430000
O       3.28780000     0.96130000    -1.97240000
C       3.44550000     1.96640000     0.28710000
C       3.75920000     0.74290000     1.14230000
C       3.57240000    -0.58430000     0.69880000
C       3.89300000    -1.66240000     1.52880000
C       4.40350000    -1.43970000     2.80970000
O       4.71820000    -2.52540000     3.62390000
C       4.59230000    -0.12900000     3.26210000
C       4.27280000     0.95160000     2.43570000
S       4.97440000     2.84580000    -0.17750000
C       5.56660000     1.57390000    -1.29090000
C       4.67870000     0.85270000    -2.10830000
C       6.94220000     1.32150000    -1.36090000
C       7.44310000     0.38860000    -2.27900000
O       8.81050000     0.13700000    -2.36240000
C       6.56290000    -0.29400000    -3.12330000
C       5.18730000    -0.06360000    -3.03650000
H      -5.76710000     1.22400000     0.98140000
H      -6.07040000     1.61960000    -0.73110000
H      -8.28750000     1.53960000     0.01360000
H      -7.91980000     0.27330000     1.25980000
H      -8.35450000    -0.03830000    -1.72660000
H      -8.85800000    -1.13450000    -0.37100000
H      -6.59620000    -1.48220000    -2.02310000
H      -6.83080000    -2.24770000    -0.43100000
H      -5.00400000    -0.22430000    -1.22940000
H      -4.57080000    -2.17630000     0.21070000
H      -6.55540000    -1.83630000     1.79340000
H      -5.67410000    -0.43830000     2.51360000
H      -4.97020000    -2.08420000     2.58490000
H      -3.60770000     0.55910000     1.23820000
H      -2.89570000    -1.05080000     1.62820000
H      -1.18510000     0.69440000     1.62790000
H       1.02980000     1.61170000     1.36610000
H      -1.30010000    -0.31880000    -2.55590000
H       0.94370000     0.61460000    -2.84590000
H       2.42440000     2.75180000    -1.44230000
H       2.90130000     2.69420000     0.92590000
H       3.17150000    -0.80620000    -0.27770000
H       3.74190000    -2.67480000     1.17550000
H       5.09030000    -2.39680000     4.55760000
H       4.98660000     0.05430000     4.25380000
H       4.42840000     1.95810000     2.80520000
H       7.62380000     1.86560000    -0.71910000
H       9.47440000     0.61590000    -1.76500000
H       6.94330000    -1.01480000    -3.83620000
H       4.51080000    -0.62180000    -3.67120000
