63
CHEMBL183044 charge=1 mult=1 PIC50=9.131
C       5.04490000     0.80710000     0.12900000
C       6.41800000     1.02760000    -0.48080000
C       7.24730000    -0.15520000    -0.01330000
C       6.26950000    -1.08500000     0.69990000
N       4.90340000    -0.63880000     0.36820000
C       4.35810000    -1.35300000    -0.82570000
C       3.39840000    -2.51230000    -0.45620000
C       4.11320000    -3.63520000     0.29460000
O       2.31180000    -2.04030000     0.34560000
C       1.24110000    -1.24780000    -0.10050000
C       0.36880000    -0.72230000     0.85870000
C      -0.71630000     0.07040000     0.47680000
C       1.00440000    -0.97670000    -1.46200000
C      -0.08190000    -0.18520000    -1.84530000
C      -0.94600000     0.35590000    -0.88050000
C      -2.15570000     1.15470000    -1.31680000
O      -2.47300000     2.14180000    -0.34180000
C      -3.36150000     0.24310000    -1.61140000
C      -3.77850000    -0.64130000    -0.44260000
C      -3.27130000    -1.95330000    -0.36930000
C      -3.58110000    -2.78040000     0.71310000
C      -4.40220000    -2.31080000     1.74370000
O      -4.71720000    -3.12540000     2.82890000
C      -4.91010000    -1.01120000     1.68500000
C      -4.59920000    -0.17930000     0.60540000
S      -4.73840000     1.21260000    -2.33190000
C      -4.71430000     2.63730000    -1.22210000
C      -3.61690000     2.94220000    -0.38770000
C      -5.86420000     3.43680000    -1.16640000
C      -5.92190000     4.54350000    -0.31010000
O      -7.06080000     5.34390000    -0.25920000
C      -4.82840000     4.84760000     0.50380000
C      -3.68470000     4.04740000     0.46840000
H       4.99870000     1.34900000     1.10230000
H       4.23910000     1.23060000    -0.51080000
H       6.34020000     1.02370000    -1.59000000
H       6.85620000     1.99220000    -0.14440000
H       8.05160000     0.17380000     0.68090000
H       7.70680000    -0.67080000    -0.88510000
H       6.46080000    -2.14350000     0.41830000
H       6.43050000    -1.00500000     1.79990000
H       4.28020000    -0.77480000     1.19920000
H       3.78740000    -0.66230000    -1.48150000
H       5.17370000    -1.74380000    -1.47640000
H       3.00340000    -2.96400000    -1.39180000
H       3.41230000    -4.48230000     0.44980000
H       4.45880000    -3.28720000     1.29010000
H       4.98030000    -4.00490000    -0.29300000
H       0.53140000    -0.93340000     1.90810000
H      -1.38510000     0.44710000     1.24050000
H       1.64020000    -1.38030000    -2.23600000
H      -0.25590000    -0.00230000    -2.89860000
H      -1.89600000     1.69210000    -2.25690000
H      -3.05260000    -0.42680000    -2.44450000
H      -2.61990000    -2.33400000    -1.14600000
H      -3.17740000    -3.78380000     0.75180000
H      -4.36370000    -4.07240000     2.90040000
H      -5.54500000    -0.64210000     2.48040000
H      -5.00910000     0.81630000     0.60370000
H      -6.71570000     3.19910000    -1.79170000
H      -7.86990000     5.15140000    -0.83860000
H      -4.86840000     5.69920000     1.17070000
H      -2.84860000     4.28090000     1.11570000
