30
CHEMBL189541 charge=0 mult=1 PIC50=8.951
C      -3.19050000    -1.38340000    -0.69450000
C      -4.38650000    -0.78470000    -0.25910000
O      -5.60520000    -1.37510000    -0.58480000
C      -4.34650000     0.40660000     0.50330000
C      -3.11640000     1.00310000     0.83250000
C      -1.94500000     0.39010000     0.38550000
C      -1.98700000    -0.76950000    -0.35330000
C      -0.54060000     0.77130000     0.57570000
N      -0.09400000     1.86780000     1.37870000
C       0.25010000    -0.12760000    -0.03520000
C      -0.61710000    -1.14330000    -0.64610000
O      -0.24600000    -2.13990000    -1.32090000
C       1.72740000    -0.11910000    -0.09530000
C       2.42600000     1.05410000    -0.42790000
C       3.82200000     1.04710000    -0.50370000
C       4.53440000    -0.13420000    -0.25790000
O       5.92540000    -0.15320000    -0.32970000
C       3.84290000    -1.30730000     0.05980000
C       2.44670000    -1.30290000     0.13560000
H      -3.20330000    -2.29570000    -1.27690000
H      -6.48510000    -0.97030000    -0.28710000
H      -5.26700000     0.86680000     0.83900000
H      -3.08610000     1.91350000     1.41580000
H      -0.78370000     2.52840000     1.79860000
H       0.91350000     1.99300000     1.61850000
H       1.89090000     1.97020000    -0.64520000
H       4.34830000     1.95790000    -0.75950000
H       6.45510000     0.67990000    -0.55830000
H       4.38810000    -2.22360000     0.24790000
H       1.92910000    -2.22000000     0.38840000
