32
CHEMBL192587 charge=0 mult=1 PIC50=8.77
C      -4.58300000    -1.66850000     0.20110000
O      -3.21320000    -1.29030000     0.11950000
C      -2.75950000     0.03610000     0.08700000
C      -3.63960000     1.14490000     0.13100000
C      -3.13820000     2.46630000     0.09330000
O      -4.00750000     3.55380000     0.13650000
C      -1.75530000     2.69370000     0.01180000
C      -0.90970000     1.58900000    -0.02970000
C      -1.38610000     0.29810000     0.00570000
C       0.53270000     1.51510000    -0.10930000
O       1.32610000     2.49090000    -0.17760000
C       0.89050000     0.09350000    -0.12270000
C      -0.24120000    -0.62720000    -0.05080000
Br     -0.35120000    -2.53520000     0.11450000
C       2.27090000    -0.43520000    -0.16130000
C       3.26170000     0.12730000     0.66020000
C       4.57270000    -0.35680000     0.61900000
C       4.91010000    -1.40180000    -0.25120000
O       6.21280000    -1.89260000    -0.30080000
C       3.93080000    -1.95650000    -1.08080000
C       2.61900000    -1.47450000    -1.04080000
H      -5.13820000    -1.28460000    -0.68070000
H      -4.65310000    -2.77540000     0.21090000
H      -5.03250000    -1.27520000     1.13730000
H      -4.70880000     0.99520000     0.19360000
H      -5.01120000     3.42740000     0.19550000
H      -1.35660000     3.69970000    -0.01710000
H       3.01760000     0.93070000     1.34410000
H       5.32470000     0.08030000     1.26340000
H       6.94500000    -1.51120000     0.28680000
H       4.18810000    -2.75770000    -1.76200000
H       1.88220000    -1.89910000    -1.71070000
