33
CHEMBL231810 charge=0 mult=1 PIC50=8.577
O      -5.49860000     2.51390000    -1.70940000
N      -4.17860000     2.26360000    -1.41590000
C      -3.81350000     1.11240000    -0.94870000
C      -2.38550000     0.82970000    -0.64630000
C      -1.40170000     1.60110000    -1.28670000
C      -0.04920000     1.34120000    -1.09980000
C       0.37350000     0.29970000    -0.26920000
C      -0.58960000    -0.47290000     0.42800000
C      -1.98090000    -0.20720000     0.24160000
C      -0.19690000    -1.48320000     1.33350000
C      -1.14720000    -2.22690000     2.02900000
C      -2.50180000    -1.96950000     1.85270000
C      -2.91960000    -0.96730000     0.97790000
C       1.82880000     0.04370000    -0.16680000
C       2.37230000    -1.16200000    -0.63920000
C       3.74930000    -1.39350000    -0.56010000
F       4.26180000    -2.56440000    -1.01370000
C       4.59590000    -0.41920000    -0.01820000
O       5.96620000    -0.65960000     0.05670000
C       4.05840000     0.79070000     0.44270000
C       2.68210000     1.02330000     0.36470000
H      -5.77330000     3.41710000    -2.07430000
H      -4.56800000     0.35140000    -0.80850000
H      -1.67850000     2.39840000    -1.96560000
H       0.67760000     1.94360000    -1.63220000
H       0.84540000    -1.69680000     1.52690000
H      -0.83040000    -2.99810000     2.71950000
H      -3.23440000    -2.54090000     2.40840000
H      -3.98160000    -0.78890000     0.91430000
H       1.72800000    -1.91980000    -1.06820000
H       6.60400000     0.02650000     0.44320000
H       4.70610000     1.55110000     0.86010000
H       2.28000000     1.96280000     0.72370000
