28
CHEMBL234524 charge=0 mult=1 PIC50=8.201
C      -3.19060000    -1.23280000    -0.45310000
C      -4.40530000    -0.56560000    -0.19160000
O      -5.62270000    -1.20990000    -0.39820000
C      -4.39600000     0.76520000     0.28330000
C      -3.18120000     1.43960000     0.49980000
C      -1.99670000     0.75690000     0.23150000
C      -2.00120000    -0.54210000    -0.22840000
C      -0.60620000     1.17890000     0.35630000
O      -0.21910000     2.29450000     0.79460000
N       0.26680000     0.11450000    -0.04020000
C      -0.61350000    -0.95530000    -0.40440000
O      -0.23590000    -2.06860000    -0.85680000
C       1.70510000     0.11900000    -0.06670000
C       2.40700000     1.27930000    -0.43510000
C       3.80500000     1.28230000    -0.46120000
C       4.51780000     0.12930000    -0.11910000
O       5.91040000     0.14680000    -0.14880000
C       3.82530000    -1.03120000     0.24990000
C       2.42730000    -1.03690000     0.27540000
H      -3.17820000    -2.25210000    -0.81700000
H      -5.66530000    -2.16360000    -0.73780000
H      -5.33100000     1.27280000     0.48300000
H      -3.16800000     2.45890000     0.86320000
H       1.87500000     2.17620000    -0.72340000
H       4.33490000     2.18060000    -0.75160000
H       6.45540000    -0.67240000     0.09350000
H       4.36880000    -1.92740000     0.52090000
H       1.91190000    -1.93700000     0.58300000
