31
CHEMBL242818 charge=0 mult=1 PIC50=7.854
C      -3.81200000    -0.29730000     0.46840000
C      -4.26990000     0.44500000    -0.62400000
O      -5.63920000     0.55010000    -0.85830000
C      -3.35160000     1.07550000    -1.47060000
C      -1.98140000     0.95480000    -1.23220000
C      -1.51060000     0.20280000    -0.14460000
C      -2.43620000    -0.41090000     0.73080000
C      -1.98320000    -1.20400000     1.92650000
N      -0.09620000     0.07060000     0.06190000
C       0.87430000     1.12070000     0.00870000
O       0.59480000     2.34800000     0.05710000
C       0.66940000    -1.13010000    -0.08110000
O       0.17190000    -2.28240000    -0.18600000
C       2.09030000    -0.81150000    -0.16190000
C       2.21510000     0.55970000    -0.10920000
C       3.20210000    -1.64030000    -0.29540000
C       4.47050000    -1.03740000    -0.36790000
C       4.60310000     0.36840000    -0.31240000
C       3.45920000     1.18320000    -0.18300000
O       5.87110000     0.93960000    -0.38830000
H      -4.53250000    -0.77900000     1.11850000
H      -6.00340000     1.08080000    -1.64100000
H      -3.69820000     1.65280000    -2.31820000
H      -1.28270000     1.43290000    -1.90720000
H      -2.74820000    -1.17230000     2.73150000
H      -1.82180000    -2.26150000     1.63260000
H      -1.04290000    -0.78950000     2.34670000
H       3.09410000    -2.71610000    -0.34260000
H       5.35140000    -1.65830000    -0.46980000
H       3.54070000     2.26180000    -0.14360000
H       6.00170000     1.94380000    -0.35200000
