27
CHEMBL284054 charge=0 mult=1 PIC50=7.42
C       2.50410000     0.02100000    -2.30700000
C       3.89350000     0.16300000    -2.15080000
C       4.45800000     0.32880000    -0.86950000
O       5.83790000     0.46720000    -0.74110000
C       3.62890000     0.35320000     0.26760000
C       2.25580000     0.21090000     0.08420000
C       1.69200000     0.04830000    -1.17030000
S       1.04610000     0.19760000     1.24350000
C      -0.23320000    -0.01560000     0.14710000
C       0.29850000    -0.08030000    -1.14880000
C      -1.66820000    -0.11880000     0.51850000
C      -2.68100000    -0.01020000    -0.45540000
C      -4.03020000    -0.10760000    -0.09590000
O      -5.01240000     0.00450000    -1.07750000
C      -4.38200000    -0.31430000     1.24300000
C      -3.38890000    -0.41970000     2.21760000
C      -2.04110000    -0.32160000     1.86110000
H       2.07500000    -0.10670000    -3.29290000
H       4.53360000     0.14410000    -3.02360000
H       6.27530000     0.58790000     0.16500000
H       4.04350000     0.47840000     1.25960000
H      -0.28770000    -0.22950000    -2.04510000
H      -2.43850000     0.16480000    -1.49420000
H      -5.99790000    -0.06070000    -0.85060000
H      -5.42330000    -0.39130000     1.52890000
H      -3.66340000    -0.57910000     3.25240000
H      -1.29420000    -0.41410000     2.63860000
