30
CHEMBL448651 charge=0 mult=1 PIC50=7.215
N       4.32150000     1.23140000     1.44310000
C       4.68320000     0.20240000     0.51410000
N       6.06080000    -0.11510000     0.31790000
N       3.78070000    -0.44980000    -0.15430000
N       2.41040000    -0.19030000    -0.01480000
C       1.53690000    -0.86380000    -0.69180000
C       0.07580000    -0.65150000    -0.53220000
C      -0.47720000     0.49640000    -0.05730000
Cl      0.49620000     1.93830000     0.27020000
C      -0.81370000    -1.83880000    -0.84220000
C      -2.16860000    -1.40670000    -1.41020000
C      -2.78750000    -0.34910000    -0.54030000
C      -1.95740000     0.59810000     0.09560000
C      -4.18260000    -0.25080000    -0.42680000
C      -4.75430000     0.76450000     0.34230000
C      -3.93910000     1.69310000     0.99140000
C      -2.54900000     1.61480000     0.86950000
H       3.32590000     1.48850000     1.62240000
H       5.06310000     1.74590000     1.96760000
H       6.80320000     0.39600000     0.84480000
H       6.34290000    -0.86240000    -0.35500000
H       1.87670000    -1.66470000    -1.33880000
H      -0.32640000    -2.51530000    -1.57760000
H      -0.97400000    -2.41540000     0.09470000
H      -2.02970000    -0.99480000    -2.43320000
H      -2.83150000    -2.29690000    -1.47800000
H      -4.82610000    -0.95890000    -0.93410000
H      -5.83060000     0.83330000     0.43310000
H      -4.38540000     2.47720000     1.58940000
H      -1.94410000     2.34450000     1.39060000
