70
CHEMBL46740 charge=1 mult=1 PIC50=7.076
C       3.95680000    -1.18010000     1.94750000
C       4.51230000    -2.25860000     0.98660000
C       5.99370000    -2.11550000     0.60270000
C       6.19430000    -1.15410000    -0.57940000
C       6.03880000     0.32460000    -0.20860000
C       4.68490000     0.65780000     0.44620000
N       4.60210000     0.15380000     1.84490000
C       3.98110000     1.14290000     2.77090000
C       2.46330000     1.36060000     2.60530000
O       2.12370000     1.62840000     1.24820000
C       0.81510000     1.78560000     0.77230000
C       0.62230000     1.91920000    -0.60710000
C      -0.66520000     2.04710000    -1.13500000
C      -0.30210000     1.80540000     1.62760000
C      -1.58910000     1.94100000     1.10090000
C      -1.78120000     2.05420000    -0.28510000
C      -3.17050000     2.11180000    -0.86220000
N      -3.51250000     0.82560000    -1.48490000
C      -3.42710000     0.50420000    -2.79740000
C      -3.65870000    -0.83780000    -2.98500000
C      -3.10770000     1.33790000    -3.87610000
C      -3.03920000     0.76710000    -5.15900000
C      -3.27710000    -0.61430000    -5.34630000
C      -3.58720000    -1.43160000    -4.24560000
O      -3.20320000    -1.17830000    -6.61750000
C      -3.78850000    -0.33940000    -0.83620000
C      -3.90230000    -1.39140000    -1.74470000
C      -4.11310000    -2.84170000    -1.43370000
C      -3.85820000    -0.48100000     0.63070000
C      -4.85320000     0.18520000     1.36070000
C      -4.90190000     0.06580000     2.75320000
C      -3.95930000    -0.71950000     3.42610000
O      -4.01560000    -0.82430000     4.81420000
C      -2.96840000    -1.39290000     2.69840000
C      -2.92070000    -1.27800000     1.30580000
H       2.86860000    -1.10840000     1.73940000
H       4.06490000    -1.55560000     2.99070000
H       4.37240000    -3.24900000     1.47330000
H       3.88920000    -2.28810000     0.06540000
H       6.61670000    -1.82340000     1.47480000
H       6.35590000    -3.11580000     0.27860000
H       5.49350000    -1.40790000    -1.40480000
H       7.22240000    -1.29930000    -0.97670000
H       6.13230000     0.92050000    -1.14250000
H       6.87540000     0.63800000     0.45360000
H       4.59300000     1.76690000     0.41680000
H       3.85400000     0.26180000    -0.18030000
H       5.57340000     0.04620000     2.22110000
H       4.15790000     0.82240000     3.82310000
H       4.49420000     2.12630000     2.67110000
H       1.90640000     0.47370000     2.97410000
H       2.16370000     2.22730000     3.23320000
H       1.47470000     1.90680000    -1.27450000
H      -0.79190000     2.12820000    -2.20670000
H      -0.18810000     1.71110000     2.69870000
H      -2.43610000     1.94210000     1.77520000
H      -3.91360000     2.35700000    -0.07530000
H      -3.23390000     2.93940000    -1.59760000
H      -2.91210000     2.39260000    -3.74720000
H      -2.79600000     1.39440000    -6.00680000
H      -3.75820000    -2.49230000    -4.37580000
H      -2.98220000    -0.61830000    -7.43280000
H      -4.70580000    -3.32410000    -2.23870000
H      -3.12930000    -3.34780000    -1.34870000
H      -4.66710000    -2.95620000    -0.47880000
H      -5.59110000     0.79380000     0.85230000
H      -5.67070000     0.58590000     3.31050000
H      -3.34010000    -1.37520000     5.33050000
H      -2.23470000    -2.00290000     3.21050000
H      -2.14400000    -1.79500000     0.75550000
