67
CHEMBL5184399 charge=0 mult=1 PIC50=6.83
O       7.90170000     0.42650000     4.67310000
C       6.73760000     0.69270000     3.96010000
O       5.84860000     1.41060000     4.49030000
C       6.53830000     0.14140000     2.59960000
C       7.44470000    -0.70090000     2.07620000
C       7.31640000    -1.26430000     0.69200000
C       5.88180000    -1.16490000     0.16780000
N       5.33620000     0.18780000     0.40550000
C       5.24570000     0.44520000     1.86380000
C       4.00730000     0.30730000    -0.24390000
C       3.51200000     1.76260000    -0.31770000
O       2.32450000     1.84340000    -1.10610000
C       1.04620000     1.41040000    -0.70950000
C       0.01410000     1.38800000    -1.66720000
C       0.29020000     1.80200000    -3.08550000
C       0.76720000     1.00570000     0.61070000
C      -0.51050000     0.56790000     0.96320000
C      -1.53390000     0.51900000     0.00750000
C      -1.26530000     0.93660000    -1.30580000
N      -2.84430000     0.04110000     0.37270000
N      -3.48840000     0.65150000     1.46270000
C      -4.84640000     1.07770000     1.32340000
C      -5.59980000     0.64760000     0.20920000
C      -5.02130000    -0.42820000    -0.67330000
C      -5.38250000     1.99840000     2.23510000
C      -6.65080000     2.54540000     2.02180000
O      -7.19260000     3.45990000     2.92230000
C      -7.37270000     2.18880000     0.88360000
C      -6.85040000     1.26360000    -0.02440000
C      -3.64770000    -0.74650000    -0.53690000
C      -3.11110000    -1.84130000    -1.26190000
C      -3.94820000    -2.49880000    -2.18910000
O      -5.22250000    -2.15900000    -2.30260000
C      -5.79020000    -1.20580000    -1.57690000
O      -7.03140000    -1.04300000    -1.69350000
C      -3.45110000    -3.54360000    -2.97610000
C      -2.13410000    -3.98590000    -2.81210000
O      -1.63190000    -5.02720000    -3.58900000
C      -1.31970000    -3.38980000    -1.84800000
C      -1.80430000    -2.33780000    -1.06620000
H       8.35430000    -0.93080000     2.61730000
H       7.63460000    -2.32860000     0.69680000
H       7.99670000    -0.70120000     0.01750000
H       5.90140000    -1.39550000    -0.92160000
H       5.24920000    -1.93500000     0.66730000
H       5.98560000     0.88880000    -0.02700000
H       4.43810000    -0.17030000     2.32070000
H       5.00070000     1.51470000     2.03660000
H       3.25740000    -0.32530000     0.28100000
H       4.06390000    -0.06240000    -1.29300000
H       3.33090000     2.19630000     0.68640000
H       4.29010000     2.38230000    -0.81120000
H       0.96330000     1.05980000    -3.56340000
H       0.77750000     2.79940000    -3.10130000
H      -0.64460000     1.86780000    -3.68200000
H       1.52960000     1.01880000     1.37570000
H      -0.69410000     0.23950000     1.97800000
H      -2.05590000     0.91150000    -2.04590000
H      -2.92260000     1.01980000     2.26060000
H      -4.80050000     2.31330000     3.09250000
H      -6.68570000     3.75190000     3.75040000
H      -8.34000000     2.63800000     0.69520000
H      -7.42870000     1.07640000    -0.91340000
H      -4.09800000    -4.02750000    -3.69790000
H      -2.19890000    -5.48320000    -4.29420000
H      -0.31030000    -3.75040000    -1.69520000
H      -1.15500000    -1.95210000    -0.29670000
