59
CHEMBL5196340 charge=1 mult=1 PIC50=6.699
C       5.34930000     0.67080000    -0.16680000
C       6.81370000     0.72840000    -0.61690000
C       7.54080000    -0.58450000    -0.28020000
C       6.59430000    -1.79790000    -0.26840000
C       5.41440000    -1.58850000    -1.22910000
N       4.58810000    -0.39770000    -0.87430000
C       3.39860000    -0.79880000    -0.08710000
O       2.61200000     0.33180000     0.25530000
C       1.59770000     0.56420000    -0.70370000
C       0.37400000    -0.25950000    -0.40160000
O      -0.16160000    -0.88930000    -1.30120000
C      -0.21820000    -0.30250000     0.98080000
N      -1.58750000     0.23630000     0.96570000
C      -1.86370000     1.65140000     0.84030000
C      -3.17410000     2.07250000     0.51280000
C      -4.21210000     1.04080000     0.18730000
C      -0.87160000     2.62150000     1.10330000
C      -1.18150000     3.98390000     1.09170000
O      -0.19950000     4.93950000     1.34380000
C      -2.48840000     4.39220000     0.84740000
C      -3.48060000     3.45010000     0.58090000
N      -2.66160000    -0.67500000     1.00390000
C      -3.97980000    -0.29860000     0.56310000
C      -5.01790000    -1.25330000     0.40950000
C      -6.20360000    -0.84350000    -0.24230000
O      -6.33190000     0.39640000    -0.68810000
C      -5.40550000     1.32900000    -0.51960000
O      -5.60240000     2.45790000    -1.04060000
C      -7.25400000    -1.74660000    -0.44050000
C      -7.15090000    -3.06190000     0.01520000
O      -8.20710000    -3.94720000    -0.19050000
C      -5.99130000    -3.47650000     0.67720000
C      -4.93350000    -2.58480000     0.87830000
H       4.87880000     1.66030000    -0.36250000
H       5.33320000     0.51340000     0.93660000
H       6.84650000     0.90350000    -1.71530000
H       7.32870000     1.58020000    -0.12070000
H       8.34680000    -0.74800000    -1.02770000
H       8.02310000    -0.49700000     0.71800000
H       7.15600000    -2.71160000    -0.55780000
H       6.20050000    -1.95430000     0.75940000
H       4.80610000    -2.52010000    -1.26020000
H       5.82600000    -1.46320000    -2.25710000
H       4.24240000     0.00980000    -1.77560000
H       3.72420000    -1.28330000     0.86080000
H       2.80750000    -1.57510000    -0.63270000
H       1.31500000     1.63530000    -0.65600000
H       1.94610000     0.38620000    -1.74730000
H      -0.22000000    -1.36010000     1.32090000
H       0.41020000     0.23370000     1.71940000
H       0.14090000     2.34270000     1.34600000
H       0.76210000     4.67600000     1.52850000
H      -2.74060000     5.44450000     0.87950000
H      -4.48860000     3.81790000     0.47240000
H      -2.44250000    -1.67210000     1.20650000
H      -8.15400000    -1.42400000    -0.94960000
H      -8.16050000    -4.90930000     0.12420000
H      -5.91040000    -4.49120000     1.04610000
H      -4.08230000    -2.95490000     1.42540000
