72
CHEMBL5199803 charge=0 mult=1 PIC50=6.426
C      -4.32370000    -0.82960000     3.15800000
C      -4.61790000    -0.71480000     4.51950000
C      -5.81010000    -0.11680000     4.93700000
O      -6.08560000    -0.01050000     6.29870000
C      -6.71460000     0.37180000     3.98580000
C      -6.42970000     0.26330000     2.62030000
C      -5.22970000    -0.34700000     2.19380000
O      -7.29280000     0.74220000     1.73310000
C      -7.08930000     0.68340000     0.42210000
O      -7.96930000     1.14760000    -0.35110000
C      -5.91780000     0.09630000    -0.09680000
C      -5.70760000     0.00380000    -1.56340000
C      -5.73830000     1.16100000    -2.35970000
C      -5.54550000     1.07230000    -3.74180000
C      -5.32080000    -0.17370000    -4.34310000
O      -5.13760000    -0.27550000    -5.72030000
C      -5.28260000    -1.32780000    -3.55430000
C      -5.47690000    -1.24160000    -2.17210000
C      -4.97280000    -0.42670000     0.81150000
N      -3.75610000    -1.01910000     0.33580000
C      -2.66570000    -0.17750000    -0.15560000
C      -1.47520000    -1.01690000    -0.53710000
O      -1.65070000    -2.01170000    -1.29280000
C      -0.10980000    -0.70560000    -0.05360000
C       0.29400000     0.61840000     0.18630000
C       1.58310000     0.89930000     0.66850000
C       2.00670000     2.32350000     0.89300000
C       2.49360000    -0.15050000     0.89220000
C       2.09120000    -1.47430000     0.63480000
C       0.80610000    -1.74530000     0.16130000
O       3.77620000     0.16340000     1.37530000
C       4.88310000    -0.73500000     1.45750000
C       5.45860000    -1.06580000     0.06580000
N       5.69890000     0.13680000    -0.77840000
C       6.83250000     0.96510000    -0.30460000
C       5.90500000    -0.22650000    -2.19720000
C       7.18990000    -1.04380000    -2.40660000
C       8.34220000    -0.53070000    -1.58860000
C       8.18310000     0.32800000    -0.56580000
C       9.34740000     0.76070000     0.24170000
O       9.18990000     1.71860000     1.23750000
O      10.49180000     0.27080000     0.04120000
H      -3.38710000    -1.28920000     2.86990000
H      -3.91520000    -1.08830000     5.25330000
H      -6.94000000     0.42070000     6.63440000
H      -7.63850000     0.83810000     4.30620000
H      -5.90220000     2.13290000    -1.90990000
H      -5.57200000     1.97220000    -4.34390000
H      -5.16970000     0.54100000    -6.32030000
H      -5.10950000    -2.29300000    -4.01400000
H      -5.45750000    -2.14600000    -1.57800000
H      -3.57240000    -2.01900000     0.58080000
H      -2.40010000     0.54870000     0.64150000
H      -2.99900000     0.39130000    -1.04850000
H      -0.38350000     1.43690000    -0.02120000
H       2.45960000     2.43030000     1.90230000
H       2.75780000     2.60930000     0.12710000
H       1.14570000     3.02270000     0.82440000
H       2.75630000    -2.30790000     0.80660000
H       0.51930000    -2.77490000    -0.01630000
H       5.66810000    -0.26850000     2.08570000
H       4.58920000    -1.66650000     1.98520000
H       6.39720000    -1.64400000     0.21040000
H       4.74060000    -1.74440000    -0.44400000
H       4.83950000     0.73580000    -0.75520000
H       6.81560000     1.94580000    -0.83050000
H       6.71680000     1.20280000     0.77200000
H       5.03290000    -0.80130000    -2.58360000
H       5.96640000     0.69960000    -2.81370000
H       7.00470000    -2.10430000    -2.13220000
H       7.46920000    -1.01870000    -3.48230000
H       9.31470000    -0.96000000    -1.79430000
