62
CHEMBL81 charge=1 mult=1 PIC50=6.096
C      -2.80160000    -1.82260000     1.60520000
C      -2.92310000    -3.19200000     1.89600000
C      -4.02500000    -3.93280000     1.41490000
O      -4.14260000    -5.29140000     1.70050000
C      -5.01340000    -3.30080000     0.64370000
C      -4.86650000    -1.94430000     0.36290000
C      -3.78270000    -1.20360000     0.81620000
S      -5.90310000    -0.95740000    -0.50760000
C      -4.97850000     0.45120000    -0.33260000
C      -5.34720000     1.75150000    -0.93860000
C      -4.37500000     2.58750000    -1.51940000
C      -4.74510000     3.79770000    -2.11210000
C      -6.09110000     4.18230000    -2.14610000
O      -6.47200000     5.38270000    -2.74140000
C      -7.06410000     3.35100000    -1.58170000
C      -6.69660000     2.14190000    -0.98410000
C      -3.82830000     0.15100000     0.42330000
C      -2.81690000     1.15400000     0.81830000
O      -3.20110000     2.17930000     1.44340000
C      -1.38190000     1.00150000     0.46390000
C      -0.40980000     1.80310000     1.08690000
C       0.94010000     1.68060000     0.74250000
C       1.34640000     0.75770000    -0.22630000
C       0.37860000    -0.04810000    -0.85240000
C      -0.97110000     0.07880000    -0.51540000
O       2.71120000     0.67800000    -0.54220000
C       3.28430000    -0.31670000    -1.38880000
C       4.79760000    -0.07740000    -1.56230000
N       5.64470000    -0.43840000    -0.39730000
C       5.20090000     0.19200000     0.86530000
C       6.28290000     0.06860000     1.95800000
C       7.15690000    -1.18660000     1.78810000
C       6.37390000    -2.32420000     1.12840000
C       5.81560000    -1.90920000    -0.25490000
H      -1.95820000    -1.26550000     1.99190000
H      -2.16540000    -3.67670000     2.49780000
H      -3.43020000    -5.78260000     2.22820000
H      -5.86920000    -3.85350000     0.27360000
H      -3.33500000     2.29340000    -1.54550000
H      -3.98560000     4.43050000    -2.55490000
H      -5.78670000     6.01690000    -3.13580000
H      -8.10590000     3.64390000    -1.60360000
H      -7.46450000     1.51900000    -0.54320000
H      -0.69190000     2.52380000     1.84410000
H       1.67550000     2.30540000     1.23470000
H       0.65560000    -0.76660000    -1.61110000
H      -1.69150000    -0.53920000    -1.03310000
H       2.81610000    -0.24390000    -2.39410000
H       3.06950000    -1.32450000    -0.98140000
H       4.95070000     0.99520000    -1.81570000
H       5.13910000    -0.65170000    -2.45190000
H       6.59040000    -0.04370000    -0.62050000
H       4.98010000     1.27180000     0.70880000
H       4.27300000    -0.30180000     1.23180000
H       6.94160000     0.96360000     1.93180000
H       5.78870000     0.04670000     2.95190000
H       8.04040000    -0.94290000     1.15720000
H       7.53250000    -1.51410000     2.78170000
H       5.53180000    -2.61080000     1.79590000
H       7.02890000    -3.21400000     1.01790000
H       6.51480000    -2.27090000    -1.04470000
H       4.85920000    -2.45220000    -0.40640000
