58
CHEMBL83 charge=1 mult=1 PIC50=5.656
C      -2.88790000     1.85200000    -2.12800000
C      -2.30400000     2.57010000    -3.17610000
C      -1.26950000     2.00200000    -3.92440000
C      -0.81810000     0.71340000    -3.62760000
C      -1.39920000    -0.00860000    -2.58120000
C      -2.43490000     0.55880000    -1.81820000
C      -3.04930000    -0.20630000    -0.70280000
C      -4.53060000    -0.51890000    -0.81970000
C      -4.78420000    -1.59760000    -1.86910000
C      -2.29350000    -0.64790000     0.34090000
C      -2.85150000    -1.53190000     1.38620000
C      -3.12560000    -1.01930000     2.66340000
C      -3.64120000    -1.85470000     3.65910000
C      -3.87620000    -3.20580000     3.38750000
C      -3.59040000    -3.72480000     2.12130000
C      -3.07480000    -2.89240000     1.12310000
C      -0.88080000    -0.22670000     0.51870000
C      -0.53940000     1.13460000     0.57380000
C       0.79250000     1.52170000     0.74030000
C       1.80190000     0.56110000     0.86590000
C       1.45950000    -0.80390000     0.83150000
C       0.12720000    -1.19210000     0.66440000
O       3.12340000     1.00240000     1.02270000
C       4.25630000     0.14280000     1.12260000
C       5.54650000     0.97160000     1.26710000
N       6.03400000     1.60560000     0.01560000
C       5.05760000     2.53650000    -0.57690000
C       6.49060000     0.61940000    -0.98080000
H      -3.67780000     2.31190000    -1.54770000
H      -2.65150000     3.56900000    -3.40610000
H      -0.81820000     2.56000000    -4.73460000
H      -0.01860000     0.27310000    -4.20930000
H      -1.04480000    -1.00910000    -2.36540000
H      -4.97240000    -0.83740000     0.14730000
H      -5.08180000     0.39790000    -1.11720000
H      -5.87150000    -1.81600000    -1.92190000
H      -4.24780000    -2.53230000    -1.60760000
H      -4.44480000    -1.25180000    -2.86870000
H      -2.94560000     0.02590000     2.88360000
H      -3.85750000    -1.45520000     4.64150000
H      -4.27420000    -3.85150000     4.15950000
H      -3.76310000    -4.77310000     1.91500000
H      -2.83620000    -3.30930000     0.15330000
H      -1.30510000     1.89600000     0.49150000
H       1.04250000     2.57460000     0.77260000
H       2.21390000    -1.57200000     0.93240000
H      -0.11660000    -2.24690000     0.63350000
H       4.14520000    -0.48700000     2.03190000
H       4.30720000    -0.53170000     0.24460000
H       6.34160000     0.30790000     1.67550000
H       5.38010000     1.75400000     2.04150000
H       6.87270000     2.17560000     0.28100000
H       5.54490000     3.14900000    -1.36720000
H       4.66420000     3.23520000     0.19370000
H       4.20820000     1.99200000    -1.04360000
H       7.05770000     1.13050000    -1.78990000
H       7.17260000    -0.12540000    -0.51550000
H       5.63830000     0.08520000    -1.45190000
