33
Co-cryst_5O1C charge=-1 mult=1 PIC50=5.301
C      -0.29340000     1.98410000    -1.33110000
C      -0.28940000     3.35380000    -1.16230000
C      -0.98640000     3.61100000     0.00350000
C      -1.38880000     2.38840000     0.50140000
N      -0.96860000     1.40620000    -0.31910000
C      -1.14290000    -0.00490000    -0.11520000
C      -2.42380000    -0.58460000    -0.22820000
I      -4.08790000     0.65220000    -0.73890000
C      -2.58710000    -1.97900000    -0.06160000
O      -3.85150000    -2.56700000    -0.15730000
C      -1.46430000    -2.79640000     0.19970000
C      -1.59060000    -4.26930000     0.37650000
O      -2.82600000    -4.90150000     0.30090000
O      -0.56960000    -4.97320000     0.60000000
C      -0.02440000    -0.82270000     0.14890000
C      -0.19490000    -2.20400000     0.29400000
C       1.33520000    -0.25130000     0.28900000
C       2.38040000    -0.70620000    -0.53240000
C       3.66290000    -0.16360000    -0.40630000
C       3.91290000     0.83100000     0.54360000
F       5.15700000     1.35640000     0.66370000
C       2.88110000     1.28080000     1.37220000
C       1.59780000     0.74000000     1.25000000
H       0.17940000     1.44380000    -2.14130000
H       0.17710000     4.08310000    -1.81070000
H      -1.17080000     4.58090000     0.44550000
H      -1.94270000     2.22820000     1.41760000
H      -4.70300000    -2.04870000    -0.32140000
H       0.67430000    -2.81770000     0.50090000
H       2.19870000    -1.47090000    -1.27760000
H       4.46200000    -0.51380000    -1.04690000
H       3.07530000     2.04650000     2.11220000
H       0.81190000     1.08810000     1.90850000
