44
Co-cryst_6GGB charge=1 mult=1 PIC50=4.959
C      -4.83920000     1.31570000     1.70300000
N      -5.41230000     0.96190000     0.39980000
C      -4.59790000     1.46410000    -0.71960000
C      -3.29290000     0.71590000    -0.84670000
C      -2.09730000     1.28740000    -0.36110000
C      -3.27280000    -0.58060000    -1.41960000
C      -2.07190000    -1.30510000    -1.52270000
C      -0.90010000    -0.71100000    -1.04620000
N       0.35440000    -1.22980000    -1.03120000
C       0.77200000    -2.56150000    -1.48020000
C       0.65490000    -3.56450000    -0.33960000
C       1.11830000    -0.28780000    -0.42010000
C       0.36540000     0.81560000    -0.07910000
C      -0.92370000     0.54660000    -0.47870000
C       2.48160000    -0.35100000    -0.11580000
C       3.08270000     0.75020000     0.54320000
C       2.28610000     1.88000000     0.87440000
C       0.91610000     1.91610000     0.56770000
C       4.52840000     0.73370000     0.88610000
C       5.38980000    -0.36380000     0.83950000
C       6.70270000    -0.06440000     1.22520000
C       6.89440000     1.26270000     1.57960000
S       5.42700000     2.06080000     1.41320000
H      -4.68820000     2.41450000     1.78300000
H      -3.87060000     0.79480000     1.86180000
H      -5.53220000     1.00120000     2.51290000
H      -6.36530000     1.39000000     0.33370000
H      -5.51610000    -0.07790000     0.33560000
H      -5.16860000     1.34190000    -1.66700000
H      -4.41630000     2.55710000    -0.60800000
H      -2.08910000     2.26720000     0.09990000
H      -4.19020000    -1.02840000    -1.78060000
H      -2.07120000    -2.29700000    -1.95320000
H       1.81990000    -2.53280000    -1.84620000
H       0.14530000    -2.89390000    -2.33420000
H       1.30570000    -3.25780000     0.50660000
H      -0.39740000    -3.62170000     0.01110000
H       0.97190000    -4.56890000    -0.69080000
H       3.05490000    -1.22380000    -0.38890000
H       2.71830000     2.73170000     1.38250000
H       0.31060000     2.77310000     0.83290000
H       5.09240000    -1.36190000     0.55110000
H       7.49420000    -0.80160000     1.24880000
H       7.82620000     1.70280000     1.90790000
