44
Co-cryst_6GGC charge=1 mult=1 PIC50=4.699
C      -6.33450000     2.15130000    -0.30800000
N      -5.12370000     1.38270000    -0.00920000
C      -4.32730000     1.16990000    -1.22590000
C      -3.08510000     0.37880000    -0.90930000
C      -1.90490000     1.04530000    -0.51700000
C      -3.11470000    -1.03790000    -0.95120000
C      -1.97370000    -1.79290000    -0.62600000
C      -0.81650000    -1.10830000    -0.24420000
N       0.38780000    -1.63000000     0.10330000
C       0.77550000    -3.04390000     0.11510000
C       1.31260000    -3.45570000    -1.24970000
C       1.18090000    -0.55490000     0.34670000
C       0.48340000     0.62320000     0.18060000
C      -0.79210000     0.27070000    -0.19740000
C       2.53420000    -0.54670000     0.69940000
C       3.17390000     0.70130000     0.89650000
C       2.43350000     1.90040000     0.72690000
C       1.07740000     1.86770000     0.36250000
C       4.60460000     0.78010000     1.27330000
C       5.47400000    -0.27890000     1.48190000
C       6.68570000     0.28880000     1.81040000
C       6.48950000     1.65290000     1.78400000
O       5.24390000     1.91360000     1.46200000
H      -6.97370000     1.60770000    -1.03800000
H      -6.92170000     2.30120000     0.62360000
H      -6.07260000     3.15130000    -0.71840000
H      -5.40440000     0.45830000     0.39510000
H      -4.55690000     1.91030000     0.69580000
H      -4.92880000     0.62440000    -1.98800000
H      -4.03850000     2.14890000    -1.67160000
H      -1.86050000     2.12610000    -0.46630000
H      -4.02270000    -1.55410000    -1.23720000
H      -2.00470000    -2.87260000    -0.67450000
H      -0.09530000    -3.67970000     0.37990000
H       1.54920000    -3.22400000     0.89070000
H       2.20520000    -2.84720000    -1.50790000
H       0.53280000    -3.30810000    -2.02660000
H       1.60200000    -4.52740000    -1.22980000
H       3.07140000    -1.47670000     0.81030000
H       2.90770000     2.86310000     0.87160000
H       0.51760000     2.78360000     0.22430000
H       5.26720000    -1.33740000     1.40860000
H       7.60550000    -0.23110000     2.04230000
H       7.23700000     2.40610000     1.99410000
